# Hz  S  DB  R  50
! ADVANTEST Corporation R3860A
! Date: Wed Apr 11 19:51:30 2007
5.3463125000e+009 -5.230035e+000  3.522754e+000 -3.560172e+001 -3.106019e+001  2.750998e+001 -1.722440e+002 -5.236770e+000  6.499271e+001
5.3464375000e+009 -5.136240e+000  3.233154e+000 -3.610209e+001 -2.878016e+001  2.748181e+001 -1.724931e+002 -5.331281e+000  6.473809e+001
5.3465625000e+009 -5.123249e+000  3.394836e+000 -3.598096e+001 -3.260181e+001  2.758373e+001 -1.724164e+002 -5.321883e+000  6.495591e+001
5.3466875000e+009 -5.059010e+000  2.890620e+000 -3.615621e+001 -2.815353e+001  2.754497e+001 -1.737674e+002 -5.393416e+000  6.474501e+001
5.3468125000e+009 -5.028702e+000  2.921892e+000 -3.611843e+001 -3.080800e+001  2.754357e+001 -1.733427e+002 -5.425466e+000  6.505531e+001
5.3469375000e+009 -4.991773e+000  2.527462e+000 -3.589021e+001 -2.909448e+001  2.756878e+001 -1.733562e+002 -5.507023e+000  6.499705e+001
5.3470625000e+009 -4.965091e+000  2.617447e+000 -3.609792e+001 -3.153692e+001  2.755060e+001 -1.739891e+002 -5.509757e+000  6.500788e+001
5.3471875000e+009 -4.927622e+000  2.287843e+000 -3.597816e+001 -2.974738e+001  2.750326e+001 -1.741390e+002 -5.570952e+000  6.489093e+001
5.3473125000e+009 -4.870388e+000  2.023576e+000 -3.627243e+001 -2.665509e+001  2.754280e+001 -1.744856e+002 -5.670794e+000  6.487067e+001
5.3474375000e+009 -4.840239e+000  2.243056e+000 -3.599070e+001 -3.284882e+001  2.738819e+001 -1.751955e+002 -5.621201e+000  6.483237e+001
5.3475625000e+009 -4.816932e+000  1.927625e+000 -3.564660e+001 -3.157641e+001  2.756980e+001 -1.751963e+002 -5.687191e+000  6.545917e+001
5.3476875000e+009 -4.752371e+000  1.761823e+000 -3.594407e+001 -3.018894e+001  2.740083e+001 -1.758589e+002 -5.700586e+000  6.499474e+001
5.3478125000e+009 -4.739579e+000  1.750157e+000 -3.578985e+001 -3.390297e+001  2.748758e+001 -1.757742e+002 -5.756002e+000  6.541009e+001
5.3479375000e+009 -4.654818e+000  1.464786e+000 -3.626657e+001 -3.197955e+001  2.744667e+001 -1.760901e+002 -5.801473e+000  6.487566e+001
5.3480625000e+009 -4.656320e+000  1.608949e+000 -3.624596e+001 -3.476511e+001  2.755637e+001 -1.765783e+002 -5.831073e+000  6.531946e+001
5.3481875000e+009 -4.651200e+000  1.235839e+000 -3.510114e+001 -3.379650e+001  2.754468e+001 -1.767228e+002 -5.938465e+000  6.578110e+001
5.3483125000e+009 -4.630584e+000  1.129836e+000 -3.522156e+001 -3.371637e+001  2.752014e+001 -1.771584e+002 -5.941332e+000  6.557693e+001
5.3484375000e+009 -4.568159e+000  9.132369e-001 -3.581022e+001 -3.238600e+001  2.745882e+001 -1.777292e+002 -5.967883e+000  6.572227e+001
5.3485625000e+009 -4.514850e+000  7.488534e-001 -3.561413e+001 -3.431805e+001  2.749247e+001 -1.777252e+002 -6.002779e+000  6.565150e+001
5.3486875000e+009 -4.458794e+000  6.617808e-001 -3.584306e+001 -3.501508e+001  2.735925e+001 -1.779085e+002 -5.971376e+000  6.527105e+001
5.3488125000e+009 -4.459945e+000  5.124075e-001 -3.542443e+001 -3.487469e+001  2.752352e+001 -1.776987e+002 -6.139358e+000  6.566977e+001
5.3489375000e+009 -4.436837e+000  3.223292e-001 -3.509141e+001 -3.373736e+001  2.744713e+001 -1.781782e+002 -6.154209e+000  6.567698e+001
5.3490625000e+009 -4.379381e+000  2.417856e-001 -3.500638e+001 -3.521659e+001  2.737504e+001 -1.789084e+002 -6.104825e+000  6.616177e+001
5.3491875000e+009 -4.313382e+000 -1.351827e-001 -3.601288e+001 -3.290431e+001  2.738844e+001 -1.791815e+002 -6.265049e+000  6.550066e+001
5.3493125000e+009 -4.327780e+000 -1.351552e-001 -3.501435e+001 -3.594933e+001  2.756756e+001 -1.790564e+002 -6.274228e+000  6.663842e+001
5.3494375000e+009 -4.258602e+000 -3.768247e-001 -3.534365e+001 -3.526556e+001  2.736198e+001 -1.796894e+002 -6.279158e+000  6.581841e+001
5.3495625000e+009 -4.197874e+000 -5.274671e-001 -3.589607e+001 -3.693174e+001  2.750254e+001 -1.794036e+002 -6.358189e+000  6.583465e+001
5.3496875000e+009 -4.208410e+000 -7.266124e-001 -3.512175e+001 -3.520174e+001  2.723701e+001  1.791841e+002 -6.317157e+000  6.621228e+001
5.3498125000e+009 -4.125148e+000 -1.012030e+000 -3.560636e+001 -3.502459e+001  2.734740e+001  1.794565e+002 -6.367255e+000  6.596415e+001
5.3499375000e+009 -4.117898e+000 -9.561023e-001 -3.592859e+001 -3.757014e+001  2.752802e+001  1.790286e+002 -6.523567e+000  6.625285e+001
5.3500625000e+009 -4.093735e+000 -1.328266e+000 -3.553059e+001 -3.279997e+001  2.752520e+001  1.789711e+002 -6.563792e+000  6.650613e+001
5.3501875000e+009 -4.052602e+000 -1.225657e+000 -3.507997e+001 -3.817191e+001  2.726958e+001  1.785400e+002 -6.442418e+000  6.610191e+001
5.3503125000e+009 -4.047759e+000 -1.417614e+000 -3.456625e+001 -3.666949e+001  2.739772e+001  1.783935e+002 -6.487558e+000  6.714291e+001
5.3504375000e+009 -3.955745e+000 -1.362292e+000 -3.470970e+001 -3.470514e+001  2.735228e+001  1.783428e+002 -6.586367e+000  6.685867e+001
5.3505625000e+009 -3.923451e+000 -1.518571e+000 -3.466114e+001 -3.789256e+001  2.733007e+001  1.780155e+002 -6.589561e+000  6.701495e+001
5.3506875000e+009 -3.897147e+000 -1.637371e+000 -3.506775e+001 -3.790587e+001  2.741607e+001  1.778554e+002 -6.611190e+000  6.683876e+001
5.3508125000e+009 -3.833532e+000 -1.686720e+000 -3.499336e+001 -3.699369e+001  2.722333e+001  1.771304e+002 -6.659479e+000  6.679378e+001
5.3509375000e+009 -3.734929e+000 -2.077984e+000 -3.547620e+001 -3.750112e+001  2.737348e+001  1.773914e+002 -6.719215e+000  6.686916e+001
5.3510625000e+009 -3.710560e+000 -2.008839e+000 -3.549373e+001 -3.972680e+001  2.734944e+001  1.774653e+002 -6.768305e+000  6.619456e+001
5.3511875000e+009 -3.711205e+000 -2.005226e+000 -3.507798e+001 -4.046129e+001  2.730311e+001  1.768691e+002 -6.710794e+000  6.718344e+001
5.3513125000e+009 -3.625309e+000 -2.104549e+000 -3.488704e+001 -3.919054e+001  2.730454e+001  1.763334e+002 -6.758408e+000  6.733788e+001
5.3514375000e+009 -3.556206e+000 -2.362891e+000 -3.556363e+001 -3.828386e+001  2.724229e+001  1.762235e+002 -6.799986e+000  6.663522e+001
5.3515625000e+009 -3.526536e+000 -2.204321e+000 -3.527402e+001 -4.231105e+001  2.734913e+001  1.759455e+002 -6.795250e+000  6.704662e+001
5.3516875000e+009 -3.503551e+000 -2.528630e+000 -3.521070e+001 -3.741108e+001  2.723005e+001  1.753012e+002 -6.864306e+000  6.715693e+001
5.3518125000e+009 -3.418745e+000 -2.696614e+000 -3.542596e+001 -3.782639e+001  2.727511e+001  1.751106e+002 -6.884048e+000  6.730863e+001
5.3519375000e+009 -3.397561e+000 -2.672752e+000 -3.484740e+001 -3.791990e+001  2.739033e+001  1.755872e+002 -7.075332e+000  6.787481e+001
5.3520625000e+009 -3.328577e+000 -2.601219e+000 -3.480110e+001 -4.195148e+001  2.731357e+001  1.751888e+002 -6.976038e+000  6.758820e+001
5.3521875000e+009 -3.297994e+000 -2.862176e+000 -3.490224e+001 -3.877615e+001  2.719374e+001  1.746838e+002 -6.952092e+000  6.748837e+001
5.3523125000e+009 -3.290580e+000 -2.887296e+000 -3.525105e+001 -3.989936e+001  2.731121e+001  1.752125e+002 -7.111359e+000  6.761336e+001
5.3524375000e+009 -3.205783e+000 -3.106332e+000 -3.487514e+001 -3.833197e+001  2.718337e+001  1.742967e+002 -6.994028e+000  6.775375e+001
5.3525625000e+009 -3.200603e+000 -3.368764e+000 -3.469636e+001 -3.768741e+001  2.714394e+001  1.741229e+002 -7.114923e+000  6.762173e+001
5.3526875000e+009 -3.135283e+000 -3.207074e+000 -3.508473e+001 -4.129010e+001  2.725487e+001  1.740943e+002 -7.161743e+000  6.788004e+001
5.3528125000e+009 -3.090912e+000 -3.421608e+000 -3.446008e+001 -3.961340e+001  2.719746e+001  1.738791e+002 -7.128444e+000  6.811277e+001
5.3529375000e+009 -3.062349e+000 -3.730592e+000 -3.450722e+001 -4.054738e+001  2.728774e+001  1.747257e+002 -7.315014e+000  6.767925e+001
5.3530625000e+009 -2.992400e+000 -3.586380e+000 -3.470004e+001 -4.080306e+001  2.715206e+001  1.723775e+002 -7.056749e+000  6.853730e+001
5.3531875000e+009 -2.908274e+000 -3.766887e+000 -3.453229e+001 -4.057433e+001  2.717823e+001  1.726634e+002 -7.229668e+000  6.864835e+001
5.3533125000e+009 -2.927927e+000 -4.356669e+000 -3.548143e+001 -4.365486e+001  2.719606e+001  1.731631e+002 -7.295888e+000  6.747260e+001
5.3534375000e+009 -2.831570e+000 -3.716606e+000 -3.458984e+001 -4.379306e+001  2.712386e+001  1.729966e+002 -7.353080e+000  6.779591e+001
5.3535625000e+009 -2.784163e+000 -4.009962e+000 -3.428959e+001 -4.113842e+001  2.714258e+001  1.723848e+002 -7.326449e+000  6.864046e+001
5.3536875000e+009 -2.766372e+000 -4.250711e+000 -3.482362e+001 -4.371293e+001  2.710863e+001  1.719230e+002 -7.310916e+000  6.800665e+001
5.3538125000e+009 -2.738410e+000 -4.300565e+000 -3.417044e+001 -4.029758e+001  2.712263e+001  1.718205e+002 -7.361363e+000  6.887967e+001
5.3539375000e+009 -2.697833e+000 -4.145832e+000 -3.425216e+001 -3.993460e+001  2.713062e+001  1.718390e+002 -7.439808e+000  6.888567e+001
5.3540625000e+009 -2.665432e+000 -4.587147e+000 -3.466689e+001 -4.211440e+001  2.703953e+001  1.718468e+002 -7.575109e+000  6.777873e+001
5.3541875000e+009 -2.617657e+000 -4.889369e+000 -3.470800e+001 -4.319093e+001  2.704206e+001  1.712601e+002 -7.556605e+000  6.792410e+001
5.3543125000e+009 -2.503690e+000 -4.686499e+000 -3.458306e+001 -4.188226e+001  2.714991e+001  1.706105e+002 -7.368322e+000  6.995974e+001
5.3544375000e+009 -2.531574e+000 -5.194124e+000 -3.420932e+001 -4.028790e+001  2.706844e+001  1.704844e+002 -7.529407e+000  6.954598e+001
5.3545625000e+009 -2.468563e+000 -5.224517e+000 -3.448184e+001 -4.179836e+001  2.705606e+001  1.705676e+002 -7.575024e+000  6.900166e+001
5.3546875000e+009 -2.433032e+000 -5.174072e+000 -3.489809e+001 -4.216066e+001  2.702928e+001  1.699384e+002 -7.501910e+000  6.921780e+001
5.3548125000e+009 -2.406035e+000 -5.366288e+000 -3.420131e+001 -4.554840e+001  2.700996e+001  1.700605e+002 -7.522320e+000  6.912422e+001
5.3549375000e+009 -2.332636e+000 -5.214638e+000 -3.452669e+001 -4.417390e+001  2.704483e+001  1.702957e+002 -7.704074e+000  6.911405e+001
5.3550625000e+009 -2.321112e+000 -5.467582e+000 -3.479606e+001 -4.278090e+001  2.699149e+001  1.697799e+002 -7.700390e+000  6.881711e+001
5.3551875000e+009 -2.312976e+000 -5.718895e+000 -3.404016e+001 -4.553041e+001  2.702134e+001  1.695119e+002 -7.615264e+000  6.988929e+001
5.3553125000e+009 -2.241933e+000 -5.769799e+000 -3.443478e+001 -4.387843e+001  2.697570e+001  1.697591e+002 -7.792164e+000  6.886272e+001
5.3554375000e+009 -2.205464e+000 -5.934803e+000 -3.457898e+001 -4.124375e+001  2.696260e+001  1.681111e+002 -7.615238e+000  7.023006e+001
5.3555625000e+009 -2.181125e+000 -5.965885e+000 -3.455955e+001 -4.056863e+001  2.696842e+001  1.691107e+002 -7.855086e+000  6.955010e+001
5.3556875000e+009 -2.107391e+000 -6.316700e+000 -3.412117e+001 -4.750889e+001  2.696128e+001  1.689764e+002 -7.743057e+000  6.890639e+001
5.3558125000e+009 -2.094419e+000 -6.030672e+000 -3.458371e+001 -4.397211e+001  2.693649e+001  1.678011e+002 -7.734993e+000  7.030054e+001
5.3559375000e+009 -2.064826e+000 -6.122378e+000 -3.460023e+001 -4.216444e+001  2.691763e+001  1.681076e+002 -7.823115e+000  6.973483e+001
5.3560625000e+009 -2.034890e+000 -6.435900e+000 -3.411148e+001 -4.629485e+001  2.686756e+001  1.676998e+002 -7.815520e+000  6.931950e+001
5.3561875000e+009 -1.937774e+000 -6.131240e+000 -3.413005e+001 -4.084924e+001  2.692047e+001  1.678286e+002 -7.912440e+000  7.057663e+001
5.3563125000e+009 -1.892194e+000 -7.004937e+000 -3.455523e+001 -4.740263e+001  2.688087e+001  1.671443e+002 -7.831925e+000  7.000510e+001
5.3564375000e+009 -1.871919e+000 -6.940951e+000 -3.440694e+001 -5.092339e+001  2.688136e+001  1.677348e+002 -7.894649e+000  6.872391e+001
5.3565625000e+009 -1.842256e+000 -6.717609e+000 -3.413012e+001 -4.503434e+001  2.686934e+001  1.668121e+002 -7.843896e+000  7.059577e+001
5.3566875000e+009 -1.904511e+000 -7.366351e+000 -3.470762e+001 -4.514632e+001  2.688316e+001  1.667091e+002 -8.022805e+000  7.045320e+001
5.3568125000e+009 -1.872122e+000 -7.429657e+000 -3.497799e+001 -4.743373e+001  2.681390e+001  1.667887e+002 -8.063845e+000  6.927728e+001
5.3569375000e+009 -1.738610e+000 -7.594411e+000 -3.439900e+001 -4.826640e+001  2.686040e+001  1.661160e+002 -7.853066e+000  7.053211e+001
5.3570625000e+009 -1.717749e+000 -7.466778e+000 -3.433887e+001 -4.768650e+001  2.680235e+001  1.661299e+002 -7.916564e+000  6.952148e+001
5.3571875000e+009 -1.704285e+000 -7.448305e+000 -3.393378e+001 -4.453336e+001  2.681648e+001  1.661804e+002 -8.045915e+000  7.045028e+001
5.3573125000e+009 -1.617659e+000 -7.400400e+000 -3.419627e+001 -4.293393e+001  2.681747e+001  1.650189e+002 -7.949222e+000  7.192416e+001
5.3574375000e+009 -1.630000e+000 -7.243480e+000 -3.406180e+001 -4.557707e+001  2.683207e+001  1.654636e+002 -7.993471e+000  7.105244e+001
5.3575625000e+009 -1.625685e+000 -7.887231e+000 -3.451303e+001 -4.516111e+001  2.675320e+001  1.650541e+002 -8.098739e+000  7.116345e+001
5.3576875000e+009 -1.591862e+000 -7.865798e+000 -3.425279e+001 -4.988172e+001  2.680359e+001  1.650621e+002 -8.002676e+000  7.129282e+001
5.3578125000e+009 -1.592095e+000 -7.818959e+000 -3.440247e+001 -4.244250e+001  2.674631e+001  1.645675e+002 -8.176973e+000  7.113478e+001
5.3579375000e+009 -1.507258e+000 -7.829686e+000 -3.427371e+001 -4.604034e+001  2.672389e+001  1.647476e+002 -8.275214e+000  7.039040e+001
5.3580625000e+009 -1.452316e+000 -7.918895e+000 -3.424615e+001 -4.619332e+001  2.678956e+001  1.644622e+002 -8.019385e+000  7.202717e+001
5.3581875000e+009 -1.490827e+000 -8.729788e+000 -3.409706e+001 -5.079578e+001  2.669035e+001  1.638061e+002 -7.978449e+000  7.060989e+001
5.3583125000e+009 -1.400783e+000 -8.505851e+000 -3.400531e+001 -4.488469e+001  2.673723e+001  1.639863e+002 -8.122667e+000  7.189699e+001
5.3584375000e+009 -1.406943e+000 -8.167019e+000 -3.434322e+001 -5.117461e+001  2.668562e+001  1.634413e+002 -8.189527e+000  7.139138e+001
5.3585625000e+009 -1.365213e+000 -8.341588e+000 -3.476012e+001 -4.801184e+001  2.672582e+001  1.636252e+002 -8.297559e+000  7.188770e+001
5.3586875000e+009 -1.269978e+000 -8.946620e+000 -3.406472e+001 -4.505859e+001  2.669372e+001  1.631358e+002 -8.155501e+000  7.185814e+001
5.3588125000e+009 -1.300343e+000 -8.747378e+000 -3.385692e+001 -4.631945e+001  2.667975e+001  1.633177e+002 -8.207639e+000  7.261206e+001
5.3589375000e+009 -1.298054e+000 -9.006039e+000 -3.424156e+001 -5.027959e+001  2.668016e+001  1.625480e+002 -8.177523e+000  7.226099e+001
5.3590625000e+009 -1.229082e+000 -8.978012e+000 -3.434071e+001 -4.994823e+001  2.664941e+001  1.625544e+002 -8.251093e+000  7.170213e+001
5.3591875000e+009 -1.218837e+000 -9.086253e+000 -3.398468e+001 -4.876777e+001  2.663830e+001  1.620763e+002 -8.217803e+000  7.226903e+001
5.3593125000e+009 -1.193473e+000 -9.358459e+000 -3.387898e+001 -4.906514e+001  2.664211e+001  1.622648e+002 -8.200184e+000  7.298050e+001
5.3594375000e+009 -1.150359e+000 -9.377905e+000 -3.399556e+001 -5.062283e+001  2.660128e+001  1.617565e+002 -8.264518e+000  7.130533e+001
5.3595625000e+009 -1.156814e+000 -9.213478e+000 -3.447006e+001 -4.525875e+001  2.664400e+001  1.616797e+002 -8.349697e+000  7.231284e+001
5.3596875000e+009 -1.105539e+000 -9.385238e+000 -3.384157e+001 -4.871338e+001  2.657497e+001  1.612093e+002 -8.303258e+000  7.299998e+001
5.3598125000e+009 -1.070192e+000 -9.556512e+000 -3.452020e+001 -4.953070e+001  2.659149e+001  1.612375e+002 -8.392168e+000  7.232449e+001
5.3599375000e+009 -1.040067e+000 -9.554865e+000 -3.451344e+001 -4.984883e+001  2.656953e+001  1.611508e+002 -8.425283e+000  7.341428e+001
5.3600625000e+009 -1.009124e+000 -9.781445e+000 -3.424847e+001 -4.844238e+001  2.655803e+001  1.607620e+002 -8.446044e+000  7.433720e+001
5.3601875000e+009 -9.865491e-001 -9.738095e+000 -3.420573e+001 -4.786546e+001  2.660752e+001  1.606043e+002 -8.305893e+000  7.294324e+001
5.3603125000e+009 -9.952511e-001 -9.841835e+000 -3.405785e+001 -4.788795e+001  2.653633e+001  1.604849e+002 -8.396921e+000  7.441306e+001
5.3604375000e+009 -9.231276e-001 -9.895382e+000 -3.431303e+001 -4.851664e+001  2.660201e+001  1.604594e+002 -8.269849e+000  7.347681e+001
5.3605625000e+009 -9.066303e-001 -9.988370e+000 -3.420754e+001 -4.992348e+001  2.656124e+001  1.597206e+002 -8.370350e+000  7.308087e+001
5.3606875000e+009 -9.399637e-001 -9.853598e+000 -3.404245e+001 -5.071017e+001  2.655126e+001  1.600923e+002 -8.328871e+000  7.437901e+001
5.3608125000e+009 -8.691292e-001 -9.733621e+000 -3.389748e+001 -4.838688e+001  2.654265e+001  1.601253e+002 -8.354215e+000  7.461944e+001
5.3609375000e+009 -8.260793e-001 -1.011786e+001 -3.382624e+001 -5.040970e+001  2.662328e+001  1.591778e+002 -8.227259e+000  7.261292e+001
5.3610625000e+009 -8.278934e-001 -1.029025e+001 -3.405846e+001 -4.974120e+001  2.653467e+001  1.595634e+002 -8.417970e+000  7.467168e+001
5.3611875000e+009 -7.432091e-001 -1.029458e+001 -3.401935e+001 -4.550789e+001  2.652754e+001  1.595281e+002 -8.356537e+000  7.564989e+001
5.3613125000e+009 -7.687799e-001 -1.042784e+001 -3.447136e+001 -4.741479e+001  2.644584e+001  1.589084e+002 -8.539550e+000  7.545694e+001
5.3614375000e+009 -7.419904e-001 -1.055144e+001 -3.369707e+001 -5.268373e+001  2.652415e+001  1.588198e+002 -8.245231e+000  7.449284e+001
5.3615625000e+009 -6.829255e-001 -1.051202e+001 -3.384096e+001 -4.547528e+001  2.644442e+001  1.586946e+002 -8.424207e+000  7.628596e+001
5.3616875000e+009 -6.328369e-001 -1.069503e+001 -3.393752e+001 -4.994365e+001  2.654724e+001  1.579939e+002 -8.363049e+000  7.425309e+001
5.3618125000e+009 -6.969489e-001 -1.062193e+001 -3.377675e+001 -4.973465e+001  2.648415e+001  1.584486e+002 -8.285925e+000  7.530559e+001
5.3619375000e+009 -6.165675e-001 -1.068167e+001 -3.337282e+001 -5.357482e+001  2.644712e+001  1.578996e+002 -8.397363e+000  7.542563e+001
5.3620625000e+009 -6.185504e-001 -1.068719e+001 -3.357484e+001 -5.180712e+001  2.655960e+001  1.573003e+002 -8.242385e+000  7.416148e+001
5.3621875000e+009 -5.999616e-001 -1.082930e+001 -3.361506e+001 -5.142921e+001  2.645380e+001  1.574713e+002 -8.386212e+000  7.524889e+001
5.3623125000e+009 -5.470945e-001 -1.087759e+001 -3.336595e+001 -5.302536e+001  2.642518e+001  1.569688e+002 -8.394735e+000  7.505026e+001
5.3624375000e+009 -5.260347e-001 -1.081930e+001 -3.379369e+001 -5.154840e+001  2.645657e+001  1.570951e+002 -8.321121e+000  7.552660e+001
5.3625625000e+009 -4.812558e-001 -1.110320e+001 -3.375414e+001 -5.776664e+001  2.642886e+001  1.568480e+002 -8.455757e+000  7.492166e+001
5.3626875000e+009 -4.807400e-001 -1.097580e+001 -3.367626e+001 -4.757628e+001  2.639083e+001  1.571198e+002 -8.421521e+000  7.744685e+001
5.3628125000e+009 -4.601147e-001 -1.088726e+001 -3.329684e+001 -4.937612e+001  2.641070e+001  1.559100e+002 -8.367660e+000  7.627282e+001
5.3629375000e+009 -4.133096e-001 -1.113698e+001 -3.372764e+001 -4.916806e+001  2.639582e+001  1.563126e+002 -8.482461e+000  7.670411e+001
5.3630625000e+009 -3.823960e-001 -1.120115e+001 -3.299631e+001 -5.288607e+001  2.636331e+001  1.563279e+002 -8.373206e+000  7.684998e+001
5.3631875000e+009 -3.981911e-001 -1.105220e+001 -3.428005e+001 -5.681374e+001  2.643899e+001  1.554998e+002 -8.606470e+000  7.542484e+001
5.3633125000e+009 -3.691465e-001 -1.104285e+001 -3.355218e+001 -5.374898e+001  2.638800e+001  1.557528e+002 -8.473184e+000  7.663851e+001
5.3634375000e+009 -3.412277e-001 -1.098863e+001 -3.392497e+001 -5.088811e+001  2.629268e+001  1.552439e+002 -8.734649e+000  7.733812e+001
5.3635625000e+009 -3.066826e-001 -1.107857e+001 -3.386546e+001 -5.176694e+001  2.642686e+001  1.553631e+002 -8.536368e+000  7.730217e+001
5.3636875000e+009 -2.935378e-001 -1.122413e+001 -3.348537e+001 -5.179773e+001  2.634001e+001  1.550687e+002 -8.539010e+000  7.796103e+001
5.3638125000e+009 -2.731345e-001 -1.108965e+001 -3.392058e+001 -5.555350e+001  2.637793e+001  1.549500e+002 -8.610315e+000  7.714467e+001
5.3639375000e+009 -2.654685e-001 -1.109871e+001 -3.311579e+001 -4.945200e+001  2.634022e+001  1.544904e+002 -8.527320e+000  7.852895e+001
5.3640625000e+009 -2.081135e-001 -1.132816e+001 -3.321337e+001 -5.242465e+001  2.637172e+001  1.544056e+002 -8.565422e+000  7.795639e+001
5.3641875000e+009 -2.086070e-001 -1.115198e+001 -3.353177e+001 -5.757127e+001  2.634101e+001  1.544554e+002 -8.640551e+000  7.746844e+001
5.3643125000e+009 -1.741803e-001 -1.122919e+001 -3.294353e+001 -5.375111e+001  2.641485e+001  1.541476e+002 -8.497897e+000  7.813262e+001
5.3644375000e+009 -1.638379e-001 -1.125785e+001 -3.332982e+001 -5.403813e+001  2.632724e+001  1.540559e+002 -8.633886e+000  7.818837e+001
5.3645625000e+009 -1.402120e-001 -1.139981e+001 -3.369558e+001 -5.341918e+001  2.627287e+001  1.538948e+002 -8.764697e+000  7.920277e+001
5.3646875000e+009 -1.521996e-001 -1.113829e+001 -3.374753e+001 -5.859036e+001  2.637376e+001  1.539968e+002 -8.643992e+000  7.855765e+001
5.3648125000e+009 -8.913292e-002 -1.144174e+001 -3.327333e+001 -5.476756e+001  2.625854e+001  1.532680e+002 -8.732779e+000  7.905523e+001
5.3649375000e+009 -1.049220e-001 -1.107926e+001 -3.355447e+001 -5.512540e+001  2.626450e+001  1.530836e+002 -8.781693e+000  7.909243e+001
5.3650625000e+009 -9.087747e-002 -1.128618e+001 -3.343825e+001 -5.437470e+001  2.641945e+001  1.542112e+002 -8.508825e+000  8.025072e+001
5.3651875000e+009 -5.612798e-002 -1.144400e+001 -3.280371e+001 -5.863014e+001  2.630210e+001  1.533089e+002 -8.596357e+000  7.936507e+001
5.3653125000e+009 -1.533058e-002 -1.158860e+001 -3.376975e+001 -5.843549e+001  2.628452e+001  1.532077e+002 -8.761749e+000  8.003931e+001
5.3654375000e+009 -2.247622e-002 -1.114805e+001 -3.316337e+001 -5.296595e+001  2.630494e+001  1.526225e+002 -8.707954e+000  8.044318e+001
5.3655625000e+009  7.976127e-002 -1.156855e+001 -3.347899e+001 -5.532502e+001  2.634045e+001  1.528302e+002 -8.708445e+000  8.071785e+001
5.3656875000e+009  4.400123e-002 -1.135189e+001 -3.360512e+001 -5.501739e+001  2.633304e+001  1.529091e+002 -8.675853e+000  8.070954e+001
5.3658125000e+009  8.261257e-002 -1.149327e+001 -3.320128e+001 -5.459542e+001  2.624670e+001  1.518609e+002 -8.858515e+000  8.129523e+001
5.3659375000e+009  9.200211e-002 -1.177006e+001 -3.333442e+001 -5.595378e+001  2.623570e+001  1.517541e+002 -8.792259e+000  8.106665e+001
5.3660625000e+009  1.409844e-001 -1.153440e+001 -3.311323e+001 -5.429900e+001  2.607838e+001  1.512431e+002 -8.960289e+000  8.163029e+001
5.3661875000e+009  1.101622e-001 -1.134362e+001 -3.384018e+001 -5.373113e+001  2.628571e+001  1.518274e+002 -8.854048e+000  8.229662e+001
5.3663125000e+009  1.121946e-001 -1.167796e+001 -3.335100e+001 -5.832057e+001  2.612315e+001  1.510752e+002 -9.002827e+000  8.146613e+001
5.3664375000e+009  1.584501e-001 -1.164653e+001 -3.321423e+001 -5.539492e+001  2.619364e+001  1.513610e+002 -8.875629e+000  8.224588e+001
5.3665625000e+009  1.451117e-001 -1.190713e+001 -3.280834e+001 -5.664747e+001  2.626283e+001  1.516151e+002 -8.681985e+000  8.270247e+001
5.3666875000e+009  2.188573e-001 -1.177422e+001 -3.374333e+001 -5.100746e+001  2.616563e+001  1.513377e+002 -8.939753e+000  8.378003e+001
5.3668125000e+009  2.131183e-001 -1.183704e+001 -3.318089e+001 -5.765479e+001  2.614486e+001  1.506918e+002 -8.924352e+000  8.272796e+001
5.3669375000e+009  2.669204e-001 -1.165591e+001 -3.323479e+001 -5.036790e+001  2.619655e+001  1.505693e+002 -8.847951e+000  8.387000e+001
5.3670625000e+009  2.888988e-001 -1.185481e+001 -3.323400e+001 -5.814012e+001  2.616528e+001  1.509334e+002 -8.900788e+000  8.357744e+001
5.3671875000e+009  2.374950e-001 -1.145578e+001 -3.333600e+001 -5.533662e+001  2.620782e+001  1.489456e+002 -9.030868e+000  8.245524e+001
5.3673125000e+009  3.364168e-001 -1.186824e+001 -3.302557e+001 -5.718013e+001  2.619581e+001  1.502886e+002 -8.892890e+000  8.387489e+001
5.3674375000e+009  2.934712e-001 -1.243349e+001 -3.293007e+001 -6.119347e+001  2.615672e+001  1.499124e+002 -8.931583e+000  8.322736e+001
5.3675625000e+009  3.493213e-001 -1.182463e+001 -3.329671e+001 -5.597951e+001  2.612321e+001  1.496440e+002 -8.999527e+000  8.440600e+001
5.3676875000e+009  3.530083e-001 -1.224182e+001 -3.363743e+001 -5.789719e+001  2.612958e+001  1.499675e+002 -9.023520e+000  8.478149e+001
5.3678125000e+009  3.294251e-001 -1.200652e+001 -3.326918e+001 -5.808770e+001  2.608750e+001  1.493327e+002 -9.076493e+000  8.467451e+001
5.3679375000e+009  4.083571e-001 -1.212387e+001 -3.324036e+001 -5.742031e+001  2.605706e+001  1.487197e+002 -9.038659e+000  8.458339e+001
5.3680625000e+009  4.364032e-001 -1.213953e+001 -3.307279e+001 -5.732837e+001  2.614658e+001  1.494903e+002 -8.936686e+000  8.527915e+001
5.3681875000e+009  4.950698e-001 -1.204767e+001 -3.278042e+001 -5.943569e+001  2.606799e+001  1.490515e+002 -8.948785e+000  8.510595e+001
5.3683125000e+009  4.439472e-001 -1.246914e+001 -3.326599e+001 -5.654338e+001  2.613639e+001  1.481524e+002 -9.017288e+000  8.523792e+001
5.3684375000e+009  3.500960e-001 -1.344361e+001 -3.330818e+001 -6.280979e+001  2.599338e+001  1.485369e+002 -9.165421e+000  8.561170e+001
5.3685625000e+009  5.461039e-001 -1.198230e+001 -3.346893e+001 -5.765164e+001  2.611695e+001  1.489220e+002 -9.029686e+000  8.656658e+001
5.3686875000e+009  5.005597e-001 -1.252323e+001 -3.287009e+001 -5.790606e+001  2.606413e+001  1.474385e+002 -9.103468e+000  8.566814e+001
5.3688125000e+009  5.290344e-001 -1.232814e+001 -3.284902e+001 -6.372807e+001  2.608535e+001  1.478082e+002 -9.083370e+000  8.561416e+001
5.3689375000e+009  5.955278e-001 -1.226864e+001 -3.266597e+001 -5.820891e+001  2.605068e+001  1.485009e+002 -8.950651e+000  8.672955e+001
5.3690625000e+009  5.164177e-001 -1.247048e+001 -3.327407e+001 -5.977489e+001  2.604453e+001  1.469154e+002 -9.143474e+000  8.661294e+001
5.3691875000e+009  5.660904e-001 -1.312676e+001 -3.349991e+001 -5.864186e+001  2.598846e+001  1.486975e+002 -9.090823e+000  8.785772e+001
5.3693125000e+009  5.230902e-001 -1.287536e+001 -3.262740e+001 -6.312823e+001  2.593443e+001  1.463150e+002 -9.112219e+000  8.633488e+001
5.3694375000e+009  5.544388e-001 -1.285401e+001 -3.296336e+001 -6.474800e+001  2.596893e+001  1.466046e+002 -9.205425e+000  8.638340e+001
5.3695625000e+009  5.653856e-001 -1.300521e+001 -3.260243e+001 -6.191454e+001  2.605516e+001  1.472957e+002 -8.998813e+000  8.714066e+001
5.3696875000e+009  6.601322e-001 -1.313791e+001 -3.311724e+001 -6.224635e+001  2.599026e+001  1.470487e+002 -9.146317e+000  8.790875e+001
5.3698125000e+009  6.645049e-001 -1.344748e+001 -3.293899e+001 -6.101133e+001  2.602880e+001  1.462973e+002 -9.101416e+000  8.789216e+001
5.3699375000e+009  6.735469e-001 -1.312334e+001 -3.319072e+001 -5.972411e+001  2.595160e+001  1.461489e+002 -9.202273e+000  8.892377e+001
5.3700625000e+009  6.510803e-001 -1.319828e+001 -3.305826e+001 -5.969743e+001  2.594579e+001  1.461411e+002 -9.164522e+000  8.879198e+001
5.3701875000e+009  7.473499e-001 -1.367688e+001 -3.323941e+001 -6.513663e+001  2.593202e+001  1.455171e+002 -9.249372e+000  8.817284e+001
5.3703125000e+009  7.181441e-001 -1.388650e+001 -3.289344e+001 -5.987041e+001  2.601691e+001  1.461296e+002 -9.065772e+000  8.914291e+001
5.3704375000e+009  7.759655e-001 -1.290639e+001 -3.247725e+001 -6.360585e+001  2.603753e+001  1.464866e+002 -9.005072e+000  8.847430e+001
5.3705625000e+009  6.730508e-001 -1.347161e+001 -3.268519e+001 -6.260915e+001  2.592250e+001  1.455629e+002 -9.111257e+000  8.878100e+001
5.3706875000e+009  6.783429e-001 -1.417989e+001 -3.293707e+001 -6.304584e+001  2.592375e+001  1.454216e+002 -9.174242e+000  8.967130e+001
5.3708125000e+009  7.836730e-001 -1.316414e+001 -3.309699e+001 -5.825824e+001  2.591535e+001  1.454508e+002 -9.107748e+000  9.040919e+001
5.3709375000e+009  7.993504e-001 -1.317126e+001 -3.272028e+001 -6.085553e+001  2.591015e+001  1.446383e+002 -9.131248e+000  9.004617e+001
5.3710625000e+009  8.212890e-001 -1.453435e+001 -3.308079e+001 -6.174105e+001  2.592412e+001  1.453126e+002 -9.119956e+000  9.062262e+001
5.3711875000e+009  7.200498e-001 -1.404475e+001 -3.240384e+001 -6.298372e+001  2.588112e+001  1.450576e+002 -9.092054e+000  8.995785e+001
5.3713125000e+009  7.817277e-001 -1.316132e+001 -3.319532e+001 -6.021630e+001  2.592779e+001  1.446571e+002 -9.122341e+000  9.114278e+001
5.3714375000e+009  8.189105e-001 -1.459499e+001 -3.296043e+001 -6.794254e+001  2.584167e+001  1.455113e+002 -9.290299e+000  9.062803e+001
5.3715625000e+009  7.673780e-001 -1.446112e+001 -3.296316e+001 -6.222829e+001  2.589006e+001  1.447357e+002 -9.163434e+000  9.157130e+001
5.3716875000e+009  8.536140e-001 -1.364105e+001 -3.265125e+001 -6.421258e+001  2.586632e+001  1.438738e+002 -9.047080e+000  9.108393e+001
5.3718125000e+009  7.717541e-001 -1.409726e+001 -3.266507e+001 -6.419885e+001  2.585310e+001  1.442664e+002 -9.154449e+000  9.166778e+001
5.3719375000e+009  8.555759e-001 -1.345155e+001 -3.292941e+001 -6.546610e+001  2.582166e+001  1.448903e+002 -9.217599e+000  9.187261e+001
5.3720625000e+009  8.263530e-001 -1.317092e+001 -3.327998e+001 -6.376645e+001  2.586121e+001  1.437939e+002 -9.260904e+000  9.230645e+001
5.3721875000e+009  9.024736e-001 -1.537979e+001 -3.325788e+001 -7.076447e+001  2.580265e+001  1.437615e+002 -9.377597e+000  9.207244e+001
5.3723125000e+009  9.833406e-001 -1.472384e+001 -3.246882e+001 -6.183158e+001  2.580345e+001  1.430054e+002 -9.076206e+000  9.258926e+001
5.3724375000e+009  9.774681e-001 -1.472447e+001 -3.337804e+001 -6.582167e+001  2.582440e+001  1.430176e+002 -9.242231e+000  9.328310e+001
5.3725625000e+009  9.109273e-001 -1.409209e+001 -3.296955e+001 -6.169148e+001  2.580630e+001  1.432880e+002 -9.157079e+000  9.371610e+001
5.3726875000e+009  9.627414e-001 -1.433272e+001 -3.280596e+001 -6.392802e+001  2.581591e+001  1.429352e+002 -9.196531e+000  9.365813e+001
5.3728125000e+009  8.062589e-001 -1.382852e+001 -3.330511e+001 -6.370749e+001  2.576912e+001  1.433465e+002 -9.277665e+000  9.441131e+001
5.3729375000e+009  9.873651e-001 -1.445018e+001 -3.273474e+001 -6.338362e+001  2.574225e+001  1.432704e+002 -9.153138e+000  9.430038e+001
5.3730625000e+009  9.960592e-001 -1.431468e+001 -3.313752e+001 -6.987833e+001  2.575457e+001  1.428246e+002 -9.321016e+000  9.373643e+001
5.3731875000e+009  9.907681e-001 -1.409262e+001 -3.275591e+001 -6.209015e+001  2.585525e+001  1.423002e+002 -9.125114e+000  9.470479e+001
5.3733125000e+009  1.116239e+000 -1.461577e+001 -3.314603e+001 -6.425078e+001  2.568912e+001  1.421351e+002 -9.308686e+000  9.529932e+001
5.3734375000e+009  8.688794e-001 -1.405041e+001 -3.271095e+001 -7.067600e+001  2.571993e+001  1.423745e+002 -9.280499e+000  9.402634e+001
5.3735625000e+009  1.080908e+000 -1.498879e+001 -3.301891e+001 -6.692921e+001  2.574101e+001  1.422639e+002 -9.246381e+000  9.545406e+001
5.3736875000e+009  1.047718e+000 -1.556777e+001 -3.290112e+001 -6.985233e+001  2.570559e+001  1.417792e+002 -9.309354e+000  9.522307e+001
5.3738125000e+009  1.032960e+000 -1.381545e+001 -3.302135e+001 -6.768760e+001  2.566174e+001  1.419242e+002 -9.286849e+000  9.526026e+001
5.3739375000e+009  9.492280e-001 -1.488367e+001 -3.256278e+001 -6.469124e+001  2.564267e+001  1.414570e+002 -9.155471e+000  9.608915e+001
5.3740625000e+009  1.188679e+000 -1.477078e+001 -3.281511e+001 -6.453279e+001  2.566976e+001  1.412884e+002 -9.192100e+000  9.616279e+001
5.3741875000e+009  1.047497e+000 -1.523870e+001 -3.286705e+001 -6.670381e+001  2.565385e+001  1.410584e+002 -9.283425e+000  9.625188e+001
5.3743125000e+009  1.009569e+000 -1.481930e+001 -3.306636e+001 -6.873723e+001  2.564435e+001  1.411676e+002 -9.270815e+000  9.687946e+001
5.3744375000e+009  1.265992e+000 -1.595315e+001 -3.238979e+001 -6.857985e+001  2.562476e+001  1.407247e+002 -9.206490e+000  9.654659e+001
5.3745625000e+009  1.064936e+000 -1.574169e+001 -3.295285e+001 -7.265301e+001  2.559875e+001  1.406963e+002 -9.410114e+000  9.704970e+001
5.3746875000e+009  1.141136e+000 -1.405686e+001 -3.300754e+001 -6.695153e+001  2.563296e+001  1.409837e+002 -9.237826e+000  9.715875e+001
5.3748125000e+009  1.111520e+000 -1.513970e+001 -3.331133e+001 -6.750002e+001  2.557344e+001  1.403440e+002 -9.331107e+000  9.808283e+001
5.3749375000e+009  1.259110e+000 -1.505357e+001 -3.276888e+001 -6.774216e+001  2.557994e+001  1.400583e+002 -9.197631e+000  9.780408e+001
5.3750625000e+009  1.170749e+000 -1.487995e+001 -3.273458e+001 -6.532448e+001  2.557393e+001  1.403685e+002 -9.171745e+000  9.835905e+001
5.3751875000e+009  1.050097e+000 -1.549820e+001 -3.298789e+001 -6.458104e+001  2.558569e+001  1.399402e+002 -9.166771e+000  9.933842e+001
5.3753125000e+009  1.171427e+000 -1.573883e+001 -3.279539e+001 -7.130528e+001  2.557563e+001  1.400236e+002 -9.268837e+000  9.832635e+001
5.3754375000e+009  1.164830e+000 -1.474945e+001 -3.283829e+001 -6.865845e+001  2.556462e+001  1.400655e+002 -9.278277e+000  9.902321e+001
5.3755625000e+009  1.223226e+000 -1.611454e+001 -3.235854e+001 -6.867010e+001  2.548572e+001  1.395049e+002 -9.324354e+000  9.904212e+001
5.3756875000e+009  1.064306e+000 -1.601551e+001 -3.246936e+001 -7.151778e+001  2.550149e+001  1.393784e+002 -9.340804e+000  9.872620e+001
5.3758125000e+009  1.115663e+000 -1.562793e+001 -3.279540e+001 -7.013190e+001  2.545490e+001  1.395190e+002 -9.429757e+000  1.003460e+002
5.3759375000e+009  1.167989e+000 -1.617413e+001 -3.319117e+001 -7.193190e+001  2.548078e+001  1.390710e+002 -9.472354e+000  9.987847e+001
5.3760625000e+009  1.310750e+000 -1.638377e+001 -3.259603e+001 -6.948225e+001  2.542216e+001  1.387286e+002 -9.473002e+000  9.960462e+001
5.3761875000e+009  1.102094e+000 -1.608782e+001 -3.249958e+001 -7.500597e+001  2.543005e+001  1.389670e+002 -9.594069e+000  1.003228e+002
5.3763125000e+009  1.306790e+000 -1.688325e+001 -3.251092e+001 -6.830230e+001  2.539147e+001  1.384992e+002 -9.433165e+000  1.008339e+002
5.3764375000e+009  1.297065e+000 -1.763090e+001 -3.306318e+001 -7.201068e+001  2.537559e+001  1.383929e+002 -9.562000e+000  1.019002e+002
5.3765625000e+009  1.201892e+000 -1.716024e+001 -3.223677e+001 -7.201263e+001  2.534743e+001  1.384207e+002 -9.538692e+000  1.006789e+002
5.3766875000e+009  1.120060e+000 -1.691119e+001 -3.229371e+001 -6.957302e+001  2.530434e+001  1.380627e+002 -9.543257e+000  1.013085e+002
5.3768125000e+009  1.268329e+000 -1.735175e+001 -3.302362e+001 -7.256185e+001  2.531966e+001  1.377452e+002 -9.720446e+000  1.021701e+002
5.3769375000e+009  1.112718e+000 -1.775923e+001 -3.291508e+001 -7.147254e+001  2.527522e+001  1.381353e+002 -9.569213e+000  1.031825e+002
5.3770625000e+009  1.263671e+000 -1.815379e+001 -3.240789e+001 -7.028345e+001  2.524709e+001  1.374169e+002 -9.673141e+000  1.022609e+002
5.3771875000e+009  1.184873e+000 -1.838551e+001 -3.256950e+001 -7.503586e+001  2.526791e+001  1.371487e+002 -9.760649e+000  1.017948e+002
5.3773125000e+009  1.177763e+000 -1.867009e+001 -3.268391e+001 -7.610883e+001  2.516983e+001  1.370788e+002 -9.894368e+000  1.028716e+002
5.3774375000e+009  1.289141e+000 -1.875751e+001 -3.241645e+001 -7.402135e+001  2.519748e+001  1.368942e+002 -9.830554e+000  1.027018e+002
5.3775625000e+009  1.236265e+000 -1.940048e+001 -3.246215e+001 -7.439064e+001  2.514944e+001  1.366903e+002 -9.891106e+000  1.034280e+002
5.3776875000e+009  1.229474e+000 -1.872198e+001 -3.202516e+001 -7.425419e+001  2.513672e+001  1.368674e+002 -9.800881e+000  1.035722e+002
5.3778125000e+009  1.157269e+000 -1.826801e+001 -3.287031e+001 -7.760111e+001  2.513537e+001  1.367566e+002 -9.959644e+000  1.042200e+002
5.3779375000e+009  1.263258e+000 -1.899586e+001 -3.226120e+001 -7.201336e+001  2.513589e+001  1.361844e+002 -9.864036e+000  1.039834e+002
5.3780625000e+009  1.189510e+000 -1.937466e+001 -3.267429e+001 -7.623779e+001  2.501907e+001  1.360764e+002 -1.011185e+001  1.057796e+002
5.3781875000e+009  1.332042e+000 -2.012811e+001 -3.218625e+001 -7.514848e+001  2.510661e+001  1.360274e+002 -9.920889e+000  1.039173e+002
5.3783125000e+009  1.326831e+000 -1.956790e+001 -3.234018e+001 -7.533422e+001  2.508132e+001  1.357807e+002 -1.002234e+001  1.047599e+002
5.3784375000e+009  1.174776e+000 -1.958266e+001 -3.259394e+001 -7.558038e+001  2.500427e+001  1.360453e+002 -1.002620e+001  1.058812e+002
5.3785625000e+009  1.306147e+000 -2.066081e+001 -3.246283e+001 -7.525465e+001  2.500763e+001  1.353929e+002 -1.007017e+001  1.056584e+002
5.3786875000e+009  1.266471e+000 -2.077243e+001 -3.239354e+001 -7.410992e+001  2.501977e+001  1.351067e+002 -1.006447e+001  1.054920e+002
5.3788125000e+009  1.305633e+000 -1.995409e+001 -3.320266e+001 -7.874938e+001  2.493574e+001  1.353490e+002 -1.021886e+001  1.077432e+002
5.3789375000e+009  1.385896e+000 -2.057832e+001 -3.288242e+001 -7.731537e+001  2.498305e+001  1.351749e+002 -1.016780e+001  1.069121e+002
5.3790625000e+009  1.321302e+000 -2.035265e+001 -3.260798e+001 -7.697108e+001  2.489613e+001  1.349992e+002 -1.019889e+001  1.076675e+002
5.3791875000e+009  1.297018e+000 -2.052910e+001 -3.267937e+001 -7.771808e+001  2.491093e+001  1.350125e+002 -1.020638e+001  1.074633e+002
5.3793125000e+009  1.338627e+000 -2.107343e+001 -3.267897e+001 -7.782970e+001  2.481031e+001  1.345089e+002 -1.026354e+001  1.085888e+002
5.3794375000e+009  1.353897e+000 -2.181920e+001 -3.232005e+001 -7.301752e+001  2.488657e+001  1.343693e+002 -1.012940e+001  1.072651e+002
5.3795625000e+009  1.197673e+000 -2.147618e+001 -3.199155e+001 -7.930076e+001  2.481931e+001  1.343714e+002 -1.037361e+001  1.077066e+002
5.3796875000e+009  1.433071e+000 -2.100775e+001 -3.198946e+001 -7.549837e+001  2.484520e+001  1.337048e+002 -1.037819e+001  1.076423e+002
5.3798125000e+009  1.282876e+000 -2.210725e+001 -3.261125e+001 -7.985668e+001  2.484900e+001  1.342188e+002 -1.036549e+001  1.079863e+002
5.3799375000e+009  1.260105e+000 -2.254874e+001 -3.250715e+001 -7.806442e+001  2.472304e+001  1.336383e+002 -1.048869e+001  1.097597e+002
5.3800625000e+009  1.367992e+000 -2.205158e+001 -3.246553e+001 -7.889617e+001  2.471570e+001  1.340193e+002 -1.032922e+001  1.095640e+002
5.3801875000e+009  1.307730e+000 -2.245387e+001 -3.227304e+001 -8.178659e+001  2.476164e+001  1.336246e+002 -1.049566e+001  1.088070e+002
5.3803125000e+009  1.195184e+000 -2.314565e+001 -3.274845e+001 -8.195126e+001  2.467137e+001  1.336823e+002 -1.058410e+001  1.106550e+002
5.3804375000e+009  1.404383e+000 -2.277594e+001 -3.154170e+001 -8.072397e+001  2.466917e+001  1.336392e+002 -1.049417e+001  1.090262e+002
5.3805625000e+009  1.388071e+000 -2.382781e+001 -3.217034e+001 -7.942143e+001  2.468760e+001  1.330030e+002 -1.049023e+001  1.097826e+002
5.3806875000e+009  1.312697e+000 -2.333285e+001 -3.172217e+001 -8.271112e+001  2.459471e+001  1.328048e+002 -1.082657e+001  1.104824e+002
5.3808125000e+009  1.388131e+000 -2.280930e+001 -3.285125e+001 -7.718874e+001  2.455472e+001  1.327402e+002 -1.050836e+001  1.124613e+002
5.3809375000e+009  1.382481e+000 -2.361859e+001 -3.236707e+001 -8.575135e+001  2.464191e+001  1.325317e+002 -1.085244e+001  1.109364e+002
5.3810625000e+009  1.304496e+000 -2.386555e+001 -3.222364e+001 -8.189861e+001  2.456693e+001  1.329018e+002 -1.071107e+001  1.114411e+002
5.3811875000e+009  1.410615e+000 -2.355319e+001 -3.184289e+001 -8.016392e+001  2.454492e+001  1.321359e+002 -1.080310e+001  1.113466e+002
5.3813125000e+009  1.441917e+000 -2.394583e+001 -3.229609e+001 -8.326762e+001  2.457510e+001  1.321650e+002 -1.075848e+001  1.117956e+002
5.3814375000e+009  1.353527e+000 -2.430531e+001 -3.263902e+001 -8.024258e+001  2.448422e+001  1.321081e+002 -1.067444e+001  1.128716e+002
5.3815625000e+009  1.431627e+000 -2.440286e+001 -3.218735e+001 -7.991468e+001  2.449219e+001  1.324638e+002 -1.054807e+001  1.121843e+002
5.3816875000e+009  1.425328e+000 -2.400957e+001 -3.220003e+001 -8.627692e+001  2.459677e+001  1.321354e+002 -1.089745e+001  1.118173e+002
5.3818125000e+009  1.363219e+000 -2.487841e+001 -3.162890e+001 -8.303402e+001  2.440541e+001  1.315636e+002 -1.089284e+001  1.125032e+002
5.3819375000e+009  1.410114e+000 -2.438569e+001 -3.195034e+001 -8.349509e+001  2.447110e+001  1.315736e+002 -1.089546e+001  1.127324e+002
5.3820625000e+009  1.411371e+000 -2.454515e+001 -3.236922e+001 -8.225122e+001  2.443266e+001  1.314045e+002 -1.087171e+001  1.139808e+002
5.3821875000e+009  1.418541e+000 -2.553947e+001 -3.195887e+001 -8.193858e+001  2.433973e+001  1.306626e+002 -1.099429e+001  1.138210e+002
5.3823125000e+009  1.420922e+000 -2.528908e+001 -3.266095e+001 -8.394908e+001  2.438097e+001  1.315978e+002 -1.084320e+001  1.146959e+002
5.3824375000e+009  1.471935e+000 -2.510832e+001 -3.196534e+001 -8.511890e+001  2.445997e+001  1.320998e+002 -1.079434e+001  1.132612e+002
5.3825625000e+009  1.465563e+000 -2.566803e+001 -3.154707e+001 -8.309129e+001  2.428257e+001  1.306457e+002 -1.106858e+001  1.138797e+002
5.3826875000e+009  1.458646e+000 -2.569629e+001 -3.197877e+001 -8.672606e+001  2.425348e+001  1.305262e+002 -1.115649e+001  1.158013e+002
5.3828125000e+009  1.489182e+000 -2.591914e+001 -3.208532e+001 -8.259900e+001  2.429707e+001  1.310515e+002 -1.085003e+001  1.147627e+002
5.3829375000e+009  1.488309e+000 -2.625699e+001 -3.216505e+001 -8.445733e+001  2.415609e+001  1.307907e+002 -1.093672e+001  1.164790e+002
5.3830625000e+009  1.477055e+000 -2.575709e+001 -3.243429e+001 -8.274519e+001  2.424773e+001  1.307653e+002 -1.091253e+001  1.162350e+002
5.3831875000e+009  1.486653e+000 -2.581475e+001 -3.238221e+001 -8.912660e+001  2.424775e+001  1.304931e+002 -1.116278e+001  1.171238e+002
5.3833125000e+009  1.535276e+000 -2.672677e+001 -3.207558e+001 -8.771166e+001  2.415001e+001  1.298227e+002 -1.127313e+001  1.169943e+002
5.3834375000e+009  1.538509e+000 -2.575114e+001 -3.263793e+001 -8.508006e+001  2.413956e+001  1.301954e+002 -1.105882e+001  1.178437e+002
5.3835625000e+009  1.500578e+000 -2.618265e+001 -3.229939e+001 -8.727621e+001  2.418506e+001  1.304034e+002 -1.110940e+001  1.171111e+002
5.3836875000e+009  1.507953e+000 -2.675471e+001 -3.201619e+001 -8.901456e+001  2.408260e+001  1.292189e+002 -1.141511e+001  1.181737e+002
5.3838125000e+009  1.523052e+000 -2.653390e+001 -3.224002e+001 -8.835294e+001  2.411165e+001  1.297553e+002 -1.131629e+001  1.180418e+002
5.3839375000e+009  1.509013e+000 -2.660367e+001 -3.208602e+001 -8.581522e+001  2.408586e+001  1.297721e+002 -1.114556e+001  1.179010e+002
5.3840625000e+009  1.563128e+000 -2.723363e+001 -3.204322e+001 -9.039822e+001  2.397040e+001  1.287468e+002 -1.147169e+001  1.195109e+002
5.3841875000e+009  1.552747e+000 -2.704718e+001 -3.221169e+001 -8.954955e+001  2.400284e+001  1.292384e+002 -1.138610e+001  1.193386e+002
5.3843125000e+009  1.516492e+000 -2.691115e+001 -3.171577e+001 -8.803116e+001  2.407890e+001  1.295644e+002 -1.132492e+001  1.178292e+002
5.3844375000e+009  1.583009e+000 -2.736828e+001 -3.230817e+001 -8.760808e+001  2.396126e+001  1.286419e+002 -1.140409e+001  1.197969e+002
5.3845625000e+009  1.588970e+000 -2.766807e+001 -3.233343e+001 -8.809472e+001  2.392282e+001  1.293915e+002 -1.123169e+001  1.200990e+002
5.3846875000e+009  1.563188e+000 -2.769329e+001 -3.209272e+001 -8.650799e+001  2.396429e+001  1.285238e+002 -1.142376e+001  1.193792e+002
5.3848125000e+009  1.580109e+000 -2.786611e+001 -3.241037e+001 -9.434875e+001  2.387601e+001  1.279392e+002 -1.168122e+001  1.219485e+002
5.3849375000e+009  1.657384e+000 -2.770730e+001 -3.162049e+001 -9.041778e+001  2.388142e+001  1.286861e+002 -1.151582e+001  1.194994e+002
5.3850625000e+009  1.651337e+000 -2.779531e+001 -3.176477e+001 -8.700081e+001  2.394258e+001  1.279507e+002 -1.159801e+001  1.198894e+002
5.3851875000e+009  1.712074e+000 -2.811225e+001 -3.123703e+001 -9.007313e+001  2.383934e+001  1.277268e+002 -1.176440e+001  1.200097e+002
5.3853125000e+009  1.681811e+000 -2.815187e+001 -3.187947e+001 -9.231017e+001  2.388598e+001  1.273147e+002 -1.182107e+001  1.211962e+002
5.3854375000e+009  1.691983e+000 -2.769066e+001 -3.279705e+001 -8.615914e+001  2.381851e+001  1.281656e+002 -1.129773e+001  1.219811e+002
5.3855625000e+009  1.690536e+000 -2.850114e+001 -3.152313e+001 -8.577409e+001  2.386491e+001  1.277633e+002 -1.158206e+001  1.197476e+002
5.3856875000e+009  1.648274e+000 -2.814121e+001 -3.191935e+001 -9.163478e+001  2.377250e+001  1.280258e+002 -1.164194e+001  1.218657e+002
5.3858125000e+009  1.683086e+000 -2.834684e+001 -3.161828e+001 -8.976247e+001  2.376062e+001  1.281781e+002 -1.153973e+001  1.213294e+002
5.3859375000e+009  1.711642e+000 -2.865255e+001 -3.159503e+001 -8.909241e+001  2.379787e+001  1.270168e+002 -1.183523e+001  1.212888e+002
5.3860625000e+009  1.703916e+000 -2.844946e+001 -3.216768e+001 -9.094678e+001  2.374659e+001  1.274213e+002 -1.166785e+001  1.228494e+002
5.3861875000e+009  1.715676e+000 -2.851838e+001 -3.189015e+001 -8.862944e+001  2.376065e+001  1.275144e+002 -1.165160e+001  1.219238e+002
5.3863125000e+009  1.933602e+000 -2.846802e+001 -3.173315e+001 -8.904315e+001  2.369442e+001  1.265263e+002 -1.177696e+001  1.227072e+002
5.3864375000e+009  1.853100e+000 -2.875667e+001 -3.196899e+001 -9.076806e+001  2.367325e+001  1.267131e+002 -1.176871e+001  1.234596e+002
5.3865625000e+009  1.622655e+000 -2.833018e+001 -3.227081e+001 -9.538069e+001  2.359609e+001  1.278669e+002 -1.166180e+001  1.250045e+002
5.3866875000e+009  1.854369e+000 -2.850563e+001 -3.210750e+001 -9.380705e+001  2.360955e+001  1.267817e+002 -1.180385e+001  1.249460e+002
5.3868125000e+009  1.891016e+000 -2.962562e+001 -3.129655e+001 -8.966721e+001  2.359248e+001  1.264965e+002 -1.184989e+001  1.229591e+002
5.3869375000e+009  1.787499e+000 -2.915325e+001 -3.204351e+001 -9.031225e+001  2.359447e+001  1.259676e+002 -1.184854e+001  1.245028e+002
5.3870625000e+009  1.883066e+000 -2.837250e+001 -3.196960e+001 -8.980462e+001  2.372248e+001  1.258060e+002 -1.192458e+001  1.234512e+002
5.3871875000e+009  1.943655e+000 -2.932250e+001 -3.111675e+001 -8.746146e+001  2.351395e+001  1.259242e+002 -1.190982e+001  1.233786e+002
5.3873125000e+009  1.839198e+000 -2.894600e+001 -3.201312e+001 -9.414082e+001  2.348059e+001  1.258521e+002 -1.186252e+001  1.263959e+002
5.3874375000e+009  1.871080e+000 -2.913079e+001 -3.142385e+001 -9.220183e+001  2.346518e+001  1.262473e+002 -1.194793e+001  1.248862e+002
5.3875625000e+009  1.912028e+000 -2.936006e+001 -3.196654e+001 -9.245679e+001  2.346169e+001  1.250714e+002 -1.197873e+001  1.264523e+002
5.3876875000e+009  1.960428e+000 -2.938206e+001 -3.195578e+001 -9.219102e+001  2.349770e+001  1.259936e+002 -1.186291e+001  1.252576e+002
5.3878125000e+009  1.933010e+000 -2.945846e+001 -3.158523e+001 -8.929520e+001  2.343987e+001  1.247413e+002 -1.210572e+001  1.258500e+002
5.3879375000e+009  1.903369e+000 -2.995657e+001 -3.170361e+001 -9.664973e+001  2.340281e+001  1.254981e+002 -1.213316e+001  1.276034e+002
5.3880625000e+009  1.833958e+000 -3.063139e+001 -3.142970e+001 -9.455116e+001  2.328413e+001  1.259108e+002 -1.205589e+001  1.273927e+002
5.3881875000e+009  1.979807e+000 -3.154758e+001 -3.138380e+001 -9.152151e+001  2.332521e+001  1.248149e+002 -1.226418e+001  1.265689e+002
5.3883125000e+009  1.841750e+000 -3.126465e+001 -3.132790e+001 -9.473793e+001  2.333304e+001  1.250486e+002 -1.245189e+001  1.275266e+002
5.3884375000e+009  1.993308e+000 -3.323154e+001 -3.137308e+001 -9.269389e+001  2.312621e+001  1.249476e+002 -1.218909e+001  1.284225e+002
5.3885625000e+009  1.985606e+000 -3.122329e+001 -3.144755e+001 -9.797145e+001  2.326051e+001  1.246411e+002 -1.251430e+001  1.297116e+002
5.3886875000e+009  1.846673e+000 -3.251847e+001 -3.135727e+001 -9.523553e+001  2.321675e+001  1.250753e+002 -1.244010e+001  1.287056e+002
5.3888125000e+009  1.876399e+000 -3.300375e+001 -3.124375e+001 -9.563238e+001  2.305442e+001  1.253527e+002 -1.233876e+001  1.301022e+002
5.3889375000e+009  1.838491e+000 -3.256317e+001 -3.208982e+001 -9.517513e+001  2.315954e+001  1.246343e+002 -1.239453e+001  1.305380e+002
5.3890625000e+009  1.938237e+000 -3.408316e+001 -3.152213e+001 -9.846456e+001  2.308698e+001  1.247981e+002 -1.259179e+001  1.309225e+002
5.3891875000e+009  1.867345e+000 -3.375677e+001 -3.140429e+001 -9.434866e+001  2.301519e+001  1.248995e+002 -1.244391e+001  1.303330e+002
5.3893125000e+009  1.857276e+000 -3.322112e+001 -3.136853e+001 -9.480713e+001  2.293381e+001  1.248780e+002 -1.244373e+001  1.319591e+002
5.3894375000e+009  1.911625e+000 -3.497546e+001 -3.136622e+001 -9.558609e+001  2.299117e+001  1.244684e+002 -1.268271e+001  1.313753e+002
5.3895625000e+009  1.750173e+000 -3.562910e+001 -3.206068e+001 -9.995926e+001  2.292947e+001  1.250767e+002 -1.248803e+001  1.328573e+002
5.3896875000e+009  1.753107e+000 -3.432364e+001 -3.187142e+001 -9.778581e+001  2.291512e+001  1.250665e+002 -1.250831e+001  1.331397e+002
5.3898125000e+009  1.998579e+000 -3.641557e+001 -3.148450e+001 -1.041150e+002  2.290272e+001  1.246221e+002 -1.277067e+001  1.340698e+002
5.3899375000e+009  1.900371e+000 -3.523424e+001 -3.127397e+001 -9.859668e+001  2.271957e+001  1.243630e+002 -1.264445e+001  1.351797e+002
5.3900625000e+009  1.732188e+000 -3.505657e+001 -3.154115e+001 -1.015475e+002  2.284996e+001  1.250470e+002 -1.264476e+001  1.347741e+002
5.3901875000e+009  1.948185e+000 -3.630347e+001 -3.139976e+001 -9.791835e+001  2.280769e+001  1.244191e+002 -1.285105e+001  1.341310e+002
5.3903125000e+009  1.982862e+000 -3.798326e+001 -3.128382e+001 -9.921078e+001  2.264103e+001  1.244362e+002 -1.269862e+001  1.353920e+002
5.3904375000e+009  1.996472e+000 -3.714132e+001 -3.177456e+001 -1.022202e+002  2.279838e+001  1.243918e+002 -1.284779e+001  1.353023e+002
5.3905625000e+009  1.912688e+000 -3.778262e+001 -3.088539e+001 -1.024365e+002  2.276478e+001  1.245698e+002 -1.319665e+001  1.354358e+002
5.3906875000e+009  2.095545e+000 -3.972435e+001 -3.102999e+001 -1.007103e+002  2.264374e+001  1.243873e+002 -1.310479e+001  1.354942e+002
5.3908125000e+009  2.046304e+000 -3.778941e+001 -3.095473e+001 -1.026313e+002  2.268289e+001  1.246328e+002 -1.301256e+001  1.359988e+002
5.3909375000e+009  2.162714e+000 -3.753058e+001 -3.183583e+001 -9.647737e+001  2.280295e+001  1.236673e+002 -1.306646e+001  1.343559e+002
5.3910625000e+009  1.990585e+000 -3.822420e+001 -3.209691e+001 -1.029601e+002  2.266198e+001  1.242157e+002 -1.288328e+001  1.370035e+002
5.3911875000e+009  1.891161e+000 -3.877691e+001 -3.130859e+001 -1.029167e+002  2.259631e+001  1.243534e+002 -1.299598e+001  1.373793e+002
5.3913125000e+009  1.786061e+000 -4.004647e+001 -3.107240e+001 -1.070933e+002  2.255733e+001  1.247514e+002 -1.312411e+001  1.389642e+002
5.3914375000e+009  2.031776e+000 -4.050250e+001 -3.182085e+001 -1.019990e+002  2.253010e+001  1.243304e+002 -1.293576e+001  1.374372e+002
5.3915625000e+009  2.095100e+000 -4.240297e+001 -3.149714e+001 -1.039440e+002  2.245927e+001  1.243620e+002 -1.304442e+001  1.377312e+002
5.3916875000e+009  2.115333e+000 -4.076242e+001 -3.148551e+001 -1.030223e+002  2.250808e+001  1.241026e+002 -1.309880e+001  1.380352e+002
5.3918125000e+009  2.206489e+000 -4.268584e+001 -3.071525e+001 -1.024096e+002  2.235042e+001  1.239388e+002 -1.331300e+001  1.394130e+002
5.3919375000e+009  1.921539e+000 -4.100346e+001 -3.095461e+001 -1.049818e+002  2.242272e+001  1.242933e+002 -1.323621e+001  1.400121e+002
5.3920625000e+009  2.000195e+000 -4.150084e+001 -3.141498e+001 -1.042039e+002  2.243678e+001  1.241058e+002 -1.326309e+001  1.393961e+002
5.3921875000e+009  2.050293e+000 -4.208217e+001 -3.128536e+001 -1.036641e+002  2.235015e+001  1.239677e+002 -1.329725e+001  1.401380e+002
5.3923125000e+009  2.213948e+000 -4.323928e+001 -3.081461e+001 -1.034079e+002  2.234792e+001  1.236923e+002 -1.363102e+001  1.392686e+002
5.3924375000e+009  2.190228e+000 -4.311724e+001 -3.028378e+001 -1.066590e+002  2.233911e+001  1.238313e+002 -1.374111e+001  1.409792e+002
5.3925625000e+009  2.038386e+000 -4.362329e+001 -3.138530e+001 -1.078980e+002  2.224405e+001  1.239380e+002 -1.320261e+001  1.424789e+002
5.3926875000e+009  1.976967e+000 -4.257653e+001 -3.126702e+001 -1.086851e+002  2.229580e+001  1.243131e+002 -1.333018e+001  1.420262e+002
5.3928125000e+009  1.976268e+000 -4.332344e+001 -3.091728e+001 -1.086574e+002  2.223385e+001  1.240921e+002 -1.346377e+001  1.440516e+002
5.3929375000e+009  2.334216e+000 -4.502960e+001 -3.175084e+001 -1.057394e+002  2.214429e+001  1.236709e+002 -1.318688e+001  1.416885e+002
5.3930625000e+009  2.068538e+000 -4.442373e+001 -3.153112e+001 -1.091203e+002  2.221017e+001  1.242126e+002 -1.337592e+001  1.422633e+002
5.3931875000e+009  2.214049e+000 -4.399691e+001 -3.133970e+001 -1.091147e+002  2.220271e+001  1.237793e+002 -1.342936e+001  1.428719e+002
5.3933125000e+009  2.441760e+000 -4.442409e+001 -3.112695e+001 -1.053421e+002  2.214672e+001  1.233009e+002 -1.350315e+001  1.422495e+002
5.3934375000e+009  2.620918e+000 -4.558746e+001 -3.098155e+001 -1.031866e+002  2.204896e+001  1.230290e+002 -1.345317e+001  1.420526e+002
5.3935625000e+009  2.202835e+000 -4.603402e+001 -3.081169e+001 -1.112724e+002  2.205651e+001  1.237163e+002 -1.366451e+001  1.451727e+002
5.3936875000e+009  2.566663e+000 -4.660313e+001 -3.101658e+001 -1.105096e+002  2.200498e+001  1.233515e+002 -1.352778e+001  1.451118e+002
5.3938125000e+009  2.176087e+000 -4.504450e+001 -3.153614e+001 -1.024425e+002  2.209083e+001  1.238136e+002 -1.345979e+001  1.418238e+002
5.3939375000e+009  2.057113e+000 -4.742337e+001 -3.126685e+001 -1.073731e+002  2.198541e+001  1.242679e+002 -1.350845e+001  1.441731e+002
5.3940625000e+009  2.588592e+000 -4.653283e+001 -3.090335e+001 -1.096862e+002  2.198241e+001  1.231971e+002 -1.363282e+001  1.446695e+002
5.3941875000e+009  2.549867e+000 -4.520313e+001 -3.069015e+001 -1.044157e+002  2.201235e+001  1.232495e+002 -1.382758e+001  1.430270e+002
5.3943125000e+009  2.468653e+000 -4.444089e+001 -3.109712e+001 -1.080943e+002  2.205021e+001  1.233830e+002 -1.350139e+001  1.443554e+002
5.3944375000e+009  2.928838e+000 -4.892636e+001 -3.048503e+001 -1.075975e+002  2.183927e+001  1.229773e+002 -1.382528e+001  1.450850e+002
5.3945625000e+009  2.602503e+000 -4.822319e+001 -3.035816e+001 -1.126235e+002  2.187657e+001  1.234974e+002 -1.374492e+001  1.477396e+002
5.3946875000e+009  2.403318e+000 -4.748240e+001 -3.085748e+001 -1.147718e+002  2.185417e+001  1.234628e+002 -1.377267e+001  1.473306e+002
5.3948125000e+009  2.673880e+000 -4.967467e+001 -3.033305e+001 -1.144195e+002  2.177532e+001  1.233926e+002 -1.383327e+001  1.487809e+002
5.3949375000e+009  2.937029e+000 -5.005892e+001 -3.079962e+001 -1.120738e+002  2.169157e+001  1.228973e+002 -1.381736e+001  1.465434e+002
5.3950625000e+009  2.567839e+000 -4.851233e+001 -3.078333e+001 -1.121664e+002  2.178617e+001  1.232891e+002 -1.381206e+001  1.463932e+002
5.3951875000e+009  2.794038e+000 -4.919918e+001 -3.027865e+001 -1.103210e+002  2.174660e+001  1.232874e+002 -1.395080e+001  1.476735e+002
5.3953125000e+009  2.664511e+000 -4.897787e+001 -3.046088e+001 -1.155326e+002  2.176313e+001  1.231127e+002 -1.385465e+001  1.483725e+002
5.3954375000e+009  2.706316e+000 -5.121870e+001 -3.088157e+001 -1.083016e+002  2.166040e+001  1.233674e+002 -1.373611e+001  1.461249e+002
5.3955625000e+009  3.205464e+000 -5.100695e+001 -2.981404e+001 -1.084007e+002  2.163194e+001  1.229201e+002 -1.418633e+001  1.475447e+002
5.3956875000e+009  2.846826e+000 -5.244909e+001 -2.958820e+001 -1.122108e+002  2.156693e+001  1.234201e+002 -1.419360e+001  1.491050e+002
5.3958125000e+009  2.693891e+000 -5.083423e+001 -3.109515e+001 -1.138059e+002  2.165556e+001  1.234201e+002 -1.368606e+001  1.471814e+002
5.3959375000e+009  3.154898e+000 -5.244126e+001 -2.984893e+001 -1.120203e+002  2.150612e+001  1.229059e+002 -1.414588e+001  1.490459e+002
5.3960625000e+009  2.859914e+000 -5.247666e+001 -3.036952e+001 -1.102154e+002  2.154866e+001  1.232007e+002 -1.403725e+001  1.473667e+002
5.3961875000e+009  3.076240e+000 -5.215916e+001 -3.035380e+001 -1.129645e+002  2.147447e+001  1.227989e+002 -1.401652e+001  1.489592e+002
5.3963125000e+009  3.717067e+000 -5.348885e+001 -3.026272e+001 -1.121047e+002  2.136410e+001  1.221283e+002 -1.404094e+001  1.486217e+002
5.3964375000e+009  3.359390e+000 -5.238003e+001 -3.032600e+001 -1.120829e+002  2.143929e+001  1.221067e+002 -1.402357e+001  1.480036e+002
5.3965625000e+009  2.852113e+000 -5.154939e+001 -3.091606e+001 -1.128123e+002  2.152649e+001  1.232237e+002 -1.380675e+001  1.468408e+002
5.3966875000e+009  3.263861e+000 -5.181271e+001 -3.005637e+001 -1.153966e+002  2.146785e+001  1.222139e+002 -1.408888e+001  1.498795e+002
5.3968125000e+009  3.319364e+000 -5.212860e+001 -3.105149e+001 -1.152014e+002  2.140254e+001  1.226695e+002 -1.380799e+001  1.498819e+002
5.3969375000e+009  3.240804e+000 -5.234882e+001 -3.068162e+001 -1.152061e+002  2.139801e+001  1.225167e+002 -1.379737e+001  1.490620e+002
5.3970625000e+009  3.633990e+000 -5.260801e+001 -3.017763e+001 -1.136768e+002  2.136531e+001  1.224114e+002 -1.411796e+001  1.486746e+002
5.3971875000e+009  3.296665e+000 -5.371153e+001 -3.054290e+001 -1.153477e+002  2.137332e+001  1.231219e+002 -1.400698e+001  1.496232e+002
5.3973125000e+009  3.844143e+000 -5.352463e+001 -3.074590e+001 -1.176027e+002  2.126049e+001  1.217168e+002 -1.370638e+001  1.496190e+002
5.3974375000e+009  3.379666e+000 -5.394994e+001 -3.024312e+001 -1.149091e+002  2.138706e+001  1.230235e+002 -1.410668e+001  1.502379e+002
5.3975625000e+009  3.578066e+000 -5.410782e+001 -3.008862e+001 -1.159095e+002  2.126938e+001  1.223871e+002 -1.393983e+001  1.502247e+002
5.3976875000e+009  3.390784e+000 -5.510785e+001 -3.033552e+001 -1.176339e+002  2.125475e+001  1.229620e+002 -1.388957e+001  1.504342e+002
5.3978125000e+009  3.745989e+000 -5.405273e+001 -2.985549e+001 -1.141161e+002  2.124600e+001  1.228272e+002 -1.422960e+001  1.511856e+002
5.3979375000e+009  3.704603e+000 -5.551283e+001 -2.991062e+001 -1.185262e+002  2.122038e+001  1.223833e+002 -1.402942e+001  1.516753e+002
5.3980625000e+009  3.300865e+000 -5.468458e+001 -3.023811e+001 -1.183247e+002  2.135605e+001  1.235550e+002 -1.388034e+001  1.516641e+002
5.3981875000e+009  4.012619e+000 -5.636499e+001 -2.995661e+001 -1.178721e+002  2.105173e+001  1.220578e+002 -1.400526e+001  1.511130e+002
5.3983125000e+009  3.543009e+000 -5.593267e+001 -2.977894e+001 -1.164966e+002  2.121375e+001  1.227185e+002 -1.407592e+001  1.512462e+002
5.3984375000e+009  3.514718e+000 -5.581251e+001 -3.066067e+001 -1.219351e+002  2.120730e+001  1.228782e+002 -1.368735e+001  1.509979e+002
5.3985625000e+009  3.984886e+000 -5.749488e+001 -3.014174e+001 -1.203928e+002  2.100110e+001  1.226110e+002 -1.381986e+001  1.518360e+002
5.3986875000e+009  3.895702e+000 -5.581124e+001 -2.987525e+001 -1.201118e+002  2.111648e+001  1.224272e+002 -1.395647e+001  1.522379e+002
5.3988125000e+009  3.748709e+000 -5.574148e+001 -3.006046e+001 -1.198066e+002  2.111259e+001  1.217295e+002 -1.377647e+001  1.506147e+002
5.3989375000e+009  4.176399e+000 -5.546219e+001 -3.071158e+001 -1.207175e+002  2.113426e+001  1.222003e+002 -1.371632e+001  1.510689e+002
5.3990625000e+009  4.250687e+000 -5.579298e+001 -2.954443e+001 -1.246990e+002  2.101856e+001  1.218527e+002 -1.377646e+001  1.546085e+002
5.3991875000e+009  3.829545e+000 -5.814275e+001 -3.009310e+001 -1.214254e+002  2.103535e+001  1.227246e+002 -1.376390e+001  1.514482e+002
5.3993125000e+009  4.408884e+000 -5.571838e+001 -2.976806e+001 -1.187853e+002  2.096358e+001  1.216658e+002 -1.402814e+001  1.519376e+002
5.3994375000e+009  4.027088e+000 -5.797210e+001 -2.947309e+001 -1.188352e+002  2.101793e+001  1.228048e+002 -1.409623e+001  1.523332e+002
5.3995625000e+009  3.975584e+000 -5.872964e+001 -2.948731e+001 -1.193805e+002  2.104013e+001  1.231730e+002 -1.402451e+001  1.525119e+002
5.3996875000e+009  4.144965e+000 -5.889020e+001 -2.997529e+001 -1.230028e+002  2.091081e+001  1.233970e+002 -1.389275e+001  1.525674e+002
5.3998125000e+009  4.290221e+000 -5.874235e+001 -2.934056e+001 -1.238028e+002  2.091411e+001  1.230950e+002 -1.395006e+001  1.541618e+002
5.3999375000e+009  4.089915e+000 -5.856352e+001 -3.033518e+001 -1.210681e+002  2.097592e+001  1.221664e+002 -1.371172e+001  1.508742e+002
5.4000625000e+009  4.521069e+000 -5.682594e+001 -2.980213e+001 -1.227959e+002  2.097951e+001  1.213633e+002 -1.378133e+001  1.522361e+002
5.4001875000e+009  4.418517e+000 -5.853819e+001 -2.992168e+001 -1.194418e+002  2.090577e+001  1.223044e+002 -1.396946e+001  1.510930e+002
5.4003125000e+009  4.146796e+000 -5.888263e+001 -2.977889e+001 -1.264997e+002  2.094642e+001  1.229455e+002 -1.369307e+001  1.528535e+002
5.4004375000e+009  4.506822e+000 -5.934753e+001 -2.983274e+001 -1.268513e+002  2.088570e+001  1.228141e+002 -1.367626e+001  1.529120e+002
5.4005625000e+009  4.471156e+000 -6.059788e+001 -2.939588e+001 -1.236659e+002  2.091573e+001  1.227481e+002 -1.382883e+001  1.534135e+002
5.4006875000e+009  4.253584e+000 -6.180035e+001 -2.963775e+001 -1.260247e+002  2.084399e+001  1.237090e+002 -1.375219e+001  1.532389e+002
5.4008125000e+009  4.387557e+000 -6.115613e+001 -2.953712e+001 -1.214617e+002  2.083780e+001  1.226937e+002 -1.392175e+001  1.529155e+002
5.4009375000e+009  4.642089e+000 -5.967265e+001 -2.932509e+001 -1.264385e+002  2.082937e+001  1.225914e+002 -1.379131e+001  1.546093e+002
5.4010625000e+009  4.286693e+000 -6.255569e+001 -2.912026e+001 -1.255393e+002  2.080077e+001  1.232273e+002 -1.385803e+001  1.547517e+002
5.4011875000e+009  4.524033e+000 -6.131975e+001 -2.904144e+001 -1.277671e+002  2.083685e+001  1.229867e+002 -1.378655e+001  1.555483e+002
5.4013125000e+009  4.396923e+000 -6.349573e+001 -3.013878e+001 -1.278103e+002  2.083126e+001  1.241151e+002 -1.375248e+001  1.534678e+002
5.4014375000e+009  4.440790e+000 -6.401247e+001 -2.979048e+001 -1.285089e+002  2.081106e+001  1.237439e+002 -1.357734e+001  1.543991e+002
5.4015625000e+009  4.529920e+000 -6.106616e+001 -2.889423e+001 -1.297200e+002  2.081823e+001  1.233850e+002 -1.384657e+001  1.561219e+002
5.4016875000e+009  4.442805e+000 -6.303405e+001 -2.941769e+001 -1.230752e+002  2.091713e+001  1.242806e+002 -1.409475e+001  1.547580e+002
5.4018125000e+009  4.350295e+000 -6.569340e+001 -2.898704e+001 -1.270824e+002  2.088943e+001  1.240161e+002 -1.384287e+001  1.562601e+002
5.4019375000e+009  4.325532e+000 -6.453214e+001 -2.873311e+001 -1.285374e+002  2.084101e+001  1.243238e+002 -1.398442e+001  1.568725e+002
5.4020625000e+009  4.495595e+000 -6.459849e+001 -2.928979e+001 -1.300342e+002  2.088810e+001  1.232177e+002 -1.364580e+001  1.557935e+002
5.4021875000e+009  4.420704e+000 -6.509260e+001 -2.936650e+001 -1.231812e+002  2.086257e+001  1.233780e+002 -1.393501e+001  1.542454e+002
5.4023125000e+009  4.633617e+000 -6.595600e+001 -2.945089e+001 -1.263655e+002  2.075587e+001  1.241495e+002 -1.390805e+001  1.545176e+002
5.4024375000e+009  4.647105e+000 -6.512895e+001 -2.890844e+001 -1.311611e+002  2.079366e+001  1.241150e+002 -1.370617e+001  1.572131e+002
5.4025625000e+009  4.453251e+000 -6.706987e+001 -2.936708e+001 -1.294688e+002  2.087333e+001  1.246386e+002 -1.375975e+001  1.556456e+002
5.4026875000e+009  4.538302e+000 -6.673161e+001 -2.950052e+001 -1.292651e+002  2.087119e+001  1.248854e+002 -1.375477e+001  1.554347e+002
5.4028125000e+009  4.625515e+000 -6.545037e+001 -2.906459e+001 -1.273905e+002  2.080235e+001  1.241404e+002 -1.389360e+001  1.558337e+002
5.4029375000e+009  4.606681e+000 -6.786603e+001 -2.920128e+001 -1.262019e+002  2.078276e+001  1.246298e+002 -1.396054e+001  1.557468e+002
5.4030625000e+009  4.605756e+000 -6.830296e+001 -2.893066e+001 -1.316261e+002  2.083103e+001  1.250899e+002 -1.373089e+001  1.565989e+002
5.4031875000e+009  4.574389e+000 -6.845605e+001 -2.918431e+001 -1.305672e+002  2.082752e+001  1.253407e+002 -1.380990e+001  1.556730e+002
5.4033125000e+009  4.678652e+000 -7.002522e+001 -2.858780e+001 -1.295680e+002  2.087460e+001  1.248795e+002 -1.375317e+001  1.577081e+002
5.4034375000e+009  4.695676e+000 -6.754530e+001 -2.837912e+001 -1.321272e+002  2.087894e+001  1.246108e+002 -1.377621e+001  1.580284e+002
5.4035625000e+009  4.713934e+000 -6.859114e+001 -2.887370e+001 -1.313786e+002  2.080857e+001  1.248754e+002 -1.372016e+001  1.564442e+002
5.4036875000e+009  4.661442e+000 -6.991994e+001 -2.853541e+001 -1.379640e+002  2.090738e+001  1.248634e+002 -1.330558e+001  1.581805e+002
5.4038125000e+009  4.687623e+000 -7.009652e+001 -2.930725e+001 -1.316190e+002  2.083204e+001  1.250926e+002 -1.373828e+001  1.555034e+002
5.4039375000e+009  4.724535e+000 -6.972034e+001 -2.929188e+001 -1.319001e+002  2.083462e+001  1.249692e+002 -1.369744e+001  1.553086e+002
5.4040625000e+009  4.817396e+000 -7.094390e+001 -2.853031e+001 -1.348307e+002  2.090395e+001  1.252570e+002 -1.351843e+001  1.575561e+002
5.4041875000e+009  4.804611e+000 -7.081728e+001 -2.918651e+001 -1.318264e+002  2.086725e+001  1.250234e+002 -1.366138e+001  1.558967e+002
5.4043125000e+009  4.750027e+000 -7.162044e+001 -2.861779e+001 -1.376455e+002  2.096915e+001  1.255336e+002 -1.341987e+001  1.574312e+002
5.4044375000e+009  4.873269e+000 -7.195415e+001 -2.966499e+001 -1.363376e+002  2.095717e+001  1.256480e+002 -1.340312e+001  1.548468e+002
5.4045625000e+009  4.834917e+000 -7.191333e+001 -2.827360e+001 -1.372711e+002  2.092835e+001  1.251914e+002 -1.340972e+001  1.580369e+002
5.4046875000e+009  4.877145e+000 -7.214880e+001 -2.869288e+001 -1.399856e+002  2.088983e+001  1.254777e+002 -1.323849e+001  1.566512e+002
5.4048125000e+009  4.839198e+000 -7.308867e+001 -2.852351e+001 -1.377419e+002  2.097189e+001  1.260190e+002 -1.338722e+001  1.570127e+002
5.4049375000e+009  4.946014e+000 -7.332442e+001 -2.900766e+001 -1.360455e+002  2.092040e+001  1.257397e+002 -1.350251e+001  1.557900e+002
5.4050625000e+009  4.882733e+000 -7.321046e+001 -2.894721e+001 -1.382101e+002  2.093241e+001  1.261917e+002 -1.341253e+001  1.557684e+002
5.4051875000e+009  4.931787e+000 -7.556995e+001 -2.929456e+001 -1.356078e+002  2.097789e+001  1.262392e+002 -1.345624e+001  1.550556e+002
5.4053125000e+009  4.970686e+000 -7.471475e+001 -2.839911e+001 -1.418937e+002  2.099108e+001  1.266047e+002 -1.319114e+001  1.563887e+002
5.4054375000e+009  4.967997e+000 -7.446873e+001 -2.897188e+001 -1.385525e+002  2.097303e+001  1.257263e+002 -1.329877e+001  1.552377e+002
5.4055625000e+009  5.014059e+000 -7.572566e+001 -2.904050e+001 -1.340379e+002  2.089720e+001  1.266222e+002 -1.352434e+001  1.544521e+002
5.4056875000e+009  5.034642e+000 -7.568282e+001 -2.872314e+001 -1.378927e+002  2.097690e+001  1.268395e+002 -1.340750e+001  1.556517e+002
5.4058125000e+009  5.059362e+000 -7.599583e+001 -2.846139e+001 -1.377753e+002  2.102975e+001  1.260620e+002 -1.335082e+001  1.558135e+002
5.4059375000e+009  5.057909e+000 -7.680180e+001 -2.886787e+001 -1.369912e+002  2.112634e+001  1.265349e+002 -1.340293e+001  1.545802e+002
5.4060625000e+009  5.066839e+000 -7.675043e+001 -2.955514e+001 -1.354935e+002  2.104957e+001  1.261410e+002 -1.339657e+001  1.535793e+002
5.4061875000e+009  5.097733e+000 -7.710435e+001 -2.867468e+001 -1.365050e+002  2.106850e+001  1.265605e+002 -1.341297e+001  1.551940e+002
5.4063125000e+009  5.110776e+000 -7.781234e+001 -2.876403e+001 -1.402711e+002  2.113293e+001  1.268731e+002 -1.314209e+001  1.547765e+002
5.4064375000e+009  5.161818e+000 -7.772907e+001 -2.869606e+001 -1.374959e+002  2.115118e+001  1.266865e+002 -1.337214e+001  1.544209e+002
5.4065625000e+009  5.112679e+000 -7.820417e+001 -2.849521e+001 -1.428100e+002  2.114823e+001  1.266451e+002 -1.302884e+001  1.542713e+002
5.4066875000e+009  5.191241e+000 -7.881783e+001 -2.822027e+001 -1.442936e+002  2.112262e+001  1.271910e+002 -1.289792e+001  1.551922e+002
5.4068125000e+009  5.204456e+000 -7.879646e+001 -2.887017e+001 -1.404612e+002  2.118280e+001  1.266066e+002 -1.307385e+001  1.533861e+002
5.4069375000e+009  5.211410e+000 -7.883775e+001 -2.919212e+001 -1.401667e+002  2.111283e+001  1.262403e+002 -1.308635e+001  1.526151e+002
5.4070625000e+009  5.250016e+000 -7.966318e+001 -2.861956e+001 -1.448776e+002  2.128954e+001  1.271097e+002 -1.289118e+001  1.531598e+002
5.4071875000e+009  5.225675e+000 -8.028588e+001 -2.813387e+001 -1.447566e+002  2.126366e+001  1.268119e+002 -1.285124e+001  1.546610e+002
5.4073125000e+009  5.266206e+000 -8.016042e+001 -2.817577e+001 -1.456660e+002  2.120329e+001  1.266442e+002 -1.277305e+001  1.535878e+002
5.4074375000e+009  5.371925e+000 -8.067282e+001 -2.840086e+001 -1.430156e+002  2.123601e+001  1.267540e+002 -1.286554e+001  1.533897e+002
5.4075625000e+009  5.289575e+000 -8.180576e+001 -2.865511e+001 -1.454696e+002  2.133888e+001  1.270077e+002 -1.279157e+001  1.523789e+002
5.4076875000e+009  5.366025e+000 -8.166905e+001 -2.889839e+001 -1.436434e+002  2.124038e+001  1.272713e+002 -1.280074e+001  1.511059e+002
5.4078125000e+009  5.306800e+000 -8.199142e+001 -2.841545e+001 -1.423650e+002  2.128347e+001  1.271097e+002 -1.277374e+001  1.524254e+002
5.4079375000e+009  5.392626e+000 -8.186669e+001 -2.790918e+001 -1.418038e+002  2.132767e+001  1.270632e+002 -1.281264e+001  1.533171e+002
5.4080625000e+009  5.399867e+000 -8.301487e+001 -2.792145e+001 -1.428701e+002  2.131506e+001  1.269442e+002 -1.281651e+001  1.526590e+002
5.4081875000e+009  5.402052e+000 -8.244071e+001 -2.890422e+001 -1.440426e+002  2.136576e+001  1.268013e+002 -1.269814e+001  1.507925e+002
5.4083125000e+009  5.513526e+000 -8.334303e+001 -2.805201e+001 -1.493604e+002  2.143834e+001  1.273581e+002 -1.247025e+001  1.514983e+002
5.4084375000e+009  5.387489e+000 -8.344849e+001 -2.897136e+001 -1.466740e+002  2.142058e+001  1.268615e+002 -1.252867e+001  1.498415e+002
5.4085625000e+009  5.468811e+000 -8.353992e+001 -2.910600e+001 -1.431774e+002  2.149160e+001  1.271927e+002 -1.277801e+001  1.495199e+002
5.4086875000e+009  5.645156e+000 -8.419115e+001 -2.868531e+001 -1.505553e+002  2.141476e+001  1.270465e+002 -1.236996e+001  1.498300e+002
5.4088125000e+009  5.491321e+000 -8.402220e+001 -2.855654e+001 -1.494341e+002  2.148891e+001  1.266734e+002 -1.233101e+001  1.491062e+002
5.4089375000e+009  5.565322e+000 -8.408327e+001 -2.841931e+001 -1.490437e+002  2.151759e+001  1.266785e+002 -1.239556e+001  1.497465e+002
5.4090625000e+009  5.633991e+000 -8.579238e+001 -2.821947e+001 -1.505436e+002  2.151875e+001  1.272091e+002 -1.220821e+001  1.494133e+002
5.4091875000e+009  5.489419e+000 -8.504448e+001 -2.866776e+001 -1.452595e+002  2.164017e+001  1.268063e+002 -1.260206e+001  1.481862e+002
5.4093125000e+009  5.539141e+000 -8.553843e+001 -2.856376e+001 -1.519547e+002  2.160733e+001  1.269805e+002 -1.209924e+001  1.485399e+002
5.4094375000e+009  5.897267e+000 -8.606200e+001 -2.910032e+001 -1.476230e+002  2.158892e+001  1.274118e+002 -1.235636e+001  1.470259e+002
5.4095625000e+009  5.645174e+000 -8.503147e+001 -2.832275e+001 -1.485726e+002  2.161397e+001  1.267557e+002 -1.224293e+001  1.480544e+002
5.4096875000e+009  5.798056e+000 -8.699117e+001 -2.854407e+001 -1.478641e+002  2.163188e+001  1.272712e+002 -1.218559e+001  1.479341e+002
5.4098125000e+009  5.519004e+000 -8.586206e+001 -2.849580e+001 -1.503906e+002  2.169804e+001  1.264655e+002 -1.198483e+001  1.473647e+002
5.4099375000e+009  5.808897e+000 -8.710273e+001 -2.810960e+001 -1.500894e+002  2.167638e+001  1.267497e+002 -1.199143e+001  1.475167e+002
5.4100625000e+009  5.792116e+000 -8.675199e+001 -2.815992e+001 -1.505778e+002  2.172982e+001  1.269678e+002 -1.200317e+001  1.466950e+002
5.4101875000e+009  5.861360e+000 -8.599931e+001 -2.879129e+001 -1.485009e+002  2.171432e+001  1.266084e+002 -1.211338e+001  1.457885e+002
5.4103125000e+009  5.748559e+000 -8.730180e+001 -2.865462e+001 -1.514537e+002  2.178673e+001  1.264805e+002 -1.190294e+001  1.458974e+002
5.4104375000e+009  5.768950e+000 -8.649822e+001 -2.859991e+001 -1.503511e+002  2.178819e+001  1.264192e+002 -1.197077e+001  1.456097e+002
5.4105625000e+009  6.056774e+000 -8.903127e+001 -2.790153e+001 -1.559420e+002  2.181511e+001  1.273798e+002 -1.159577e+001  1.460286e+002
5.4106875000e+009  5.919756e+000 -8.791998e+001 -2.862662e+001 -1.522929e+002  2.184536e+001  1.264804e+002 -1.182191e+001  1.442140e+002
5.4108125000e+009  5.951705e+000 -8.758041e+001 -2.833759e+001 -1.489243e+002  2.184866e+001  1.264748e+002 -1.180923e+001  1.453127e+002
5.4109375000e+009  5.944685e+000 -8.882861e+001 -2.850564e+001 -1.514747e+002  2.193815e+001  1.266446e+002 -1.175700e+001  1.439980e+002
5.4110625000e+009  6.037455e+000 -8.845045e+001 -2.817338e+001 -1.504000e+002  2.192192e+001  1.264729e+002 -1.164179e+001  1.444667e+002
5.4111875000e+009  5.889076e+000 -8.759608e+001 -2.885757e+001 -1.580163e+002  2.194885e+001  1.259599e+002 -1.139907e+001  1.430310e+002
5.4113125000e+009  6.155481e+000 -8.847701e+001 -2.826989e+001 -1.529857e+002  2.191943e+001  1.263658e+002 -1.153619e+001  1.441897e+002
5.4114375000e+009  6.060249e+000 -8.955371e+001 -2.807280e+001 -1.499601e+002  2.202355e+001  1.264475e+002 -1.144554e+001  1.446222e+002
5.4115625000e+009  6.050532e+000 -8.941718e+001 -2.832115e+001 -1.526802e+002  2.205991e+001  1.263685e+002 -1.140225e+001  1.429483e+002
5.4116875000e+009  6.113657e+000 -8.658566e+001 -2.884897e+001 -1.511840e+002  2.199452e+001  1.256757e+002 -1.149031e+001  1.425684e+002
5.4118125000e+009  6.293055e+000 -9.079571e+001 -2.818018e+001 -1.507892e+002  2.208515e+001  1.265306e+002 -1.138388e+001  1.428787e+002
5.4119375000e+009  5.845375e+000 -8.810864e+001 -2.826670e+001 -1.559527e+002  2.215427e+001  1.252963e+002 -1.125291e+001  1.411399e+002
5.4120625000e+009  5.984660e+000 -8.980798e+001 -2.841777e+001 -1.565243e+002  2.219791e+001  1.258875e+002 -1.098654e+001  1.427162e+002
5.4121875000e+009  6.505730e+000 -9.020650e+001 -2.823137e+001 -1.577980e+002  2.204616e+001  1.261382e+002 -1.112292e+001  1.417455e+002
5.4123125000e+009  6.347045e+000 -8.900344e+001 -2.824440e+001 -1.535738e+002  2.215763e+001  1.253622e+002 -1.108579e+001  1.408579e+002
5.4124375000e+009  6.073810e+000 -8.898078e+001 -2.889422e+001 -1.526714e+002  2.224871e+001  1.256178e+002 -1.113354e+001  1.401203e+002
5.4125625000e+009  6.617872e+000 -9.038753e+001 -2.819591e+001 -1.552631e+002  2.216100e+001  1.260502e+002 -1.091943e+001  1.425188e+002
5.4126875000e+009  6.236252e+000 -9.080527e+001 -2.773307e+001 -1.552966e+002  2.224732e+001  1.256094e+002 -1.094100e+001  1.418047e+002
5.4128125000e+009  6.099154e+000 -8.990276e+001 -2.849262e+001 -1.574455e+002  2.231833e+001  1.252377e+002 -1.084050e+001  1.404925e+002
5.4129375000e+009  6.523494e+000 -9.149777e+001 -2.780816e+001 -1.516670e+002  2.229198e+001  1.256485e+002 -1.094623e+001  1.413840e+002
5.4130625000e+009  6.188077e+000 -9.253181e+001 -2.834690e+001 -1.556816e+002  2.242680e+001  1.255492e+002 -1.078958e+001  1.401866e+002
5.4131875000e+009  5.916567e+000 -9.116380e+001 -2.854183e+001 -1.575944e+002  2.247460e+001  1.251786e+002 -1.068665e+001  1.404264e+002
5.4133125000e+009  5.949316e+000 -9.170789e+001 -2.805611e+001 -1.553453e+002  2.254241e+001  1.252922e+002 -1.046660e+001  1.421611e+002
5.4134375000e+009  6.180677e+000 -9.204583e+001 -2.785460e+001 -1.606060e+002  2.246469e+001  1.249687e+002 -1.061744e+001  1.400050e+002
5.4135625000e+009  6.040184e+000 -9.169462e+001 -2.795240e+001 -1.559868e+002  2.253068e+001  1.248764e+002 -1.052746e+001  1.406771e+002
5.4136875000e+009  6.206849e+000 -9.213084e+001 -2.828238e+001 -1.549876e+002  2.253486e+001  1.251478e+002 -1.060089e+001  1.415549e+002
5.4138125000e+009  5.841066e+000 -9.132317e+001 -2.907704e+001 -1.600021e+002  2.256890e+001  1.246187e+002 -1.055326e+001  1.399700e+002
5.4139375000e+009  5.774142e+000 -9.156681e+001 -2.826552e+001 -1.588360e+002  2.268423e+001  1.243672e+002 -1.037514e+001  1.404617e+002
5.4140625000e+009  5.986869e+000 -9.299326e+001 -2.904775e+001 -1.627038e+002  2.271923e+001  1.251073e+002 -1.021530e+001  1.407375e+002
5.4141875000e+009  5.551961e+000 -9.311583e+001 -2.847815e+001 -1.594370e+002  2.278708e+001  1.240170e+002 -1.025347e+001  1.399727e+002
5.4143125000e+009  6.022701e+000 -9.527670e+001 -2.864180e+001 -1.629231e+002  2.269162e+001  1.249043e+002 -1.036604e+001  1.399092e+002
5.4144375000e+009  5.998726e+000 -9.368852e+001 -2.800552e+001 -1.614263e+002  2.279897e+001  1.247705e+002 -1.001510e+001  1.416127e+002
5.4145625000e+009  5.925206e+000 -9.453562e+001 -2.829480e+001 -1.616263e+002  2.290595e+001  1.241647e+002 -9.918538e+000  1.393460e+002
5.4146875000e+009  5.549774e+000 -9.418700e+001 -2.792390e+001 -1.594121e+002  2.296284e+001  1.232971e+002 -9.918654e+000  1.395762e+002
5.4148125000e+009  5.718612e+000 -9.457146e+001 -2.844635e+001 -1.600136e+002  2.285436e+001  1.234171e+002 -1.007873e+001  1.398542e+002
5.4149375000e+009  5.923210e+000 -9.584205e+001 -2.833517e+001 -1.652876e+002  2.294755e+001  1.234330e+002 -9.820104e+000  1.384707e+002
5.4150625000e+009  5.741338e+000 -9.613386e+001 -2.856734e+001 -1.614993e+002  2.300689e+001  1.233365e+002 -9.781524e+000  1.394187e+002
5.4151875000e+009  5.801722e+000 -9.554016e+001 -2.836283e+001 -1.588656e+002  2.303460e+001  1.235553e+002 -9.775947e+000  1.402055e+002
5.4153125000e+009  5.646371e+000 -9.670348e+001 -2.892282e+001 -1.661484e+002  2.307217e+001  1.232364e+002 -9.554042e+000  1.389257e+002
5.4154375000e+009  5.223529e+000 -9.721027e+001 -2.910253e+001 -1.672242e+002  2.320571e+001  1.225852e+002 -9.450653e+000  1.382974e+002
5.4155625000e+009  5.904249e+000 -9.486787e+001 -2.902026e+001 -1.650774e+002  2.294559e+001  1.238300e+002 -9.610268e+000  1.410038e+002
5.4156875000e+009  5.464752e+000 -9.573881e+001 -2.863738e+001 -1.612581e+002  2.308269e+001  1.228783e+002 -9.447573e+000  1.408035e+002
5.4158125000e+009  5.233949e+000 -9.571939e+001 -2.918921e+001 -1.651382e+002  2.316723e+001  1.219375e+002 -9.317342e+000  1.388315e+002
5.4159375000e+009  5.753829e+000 -9.776139e+001 -2.851281e+001 -1.605335e+002  2.308006e+001  1.223115e+002 -9.262260e+000  1.398019e+002
5.4160625000e+009  4.885079e+000 -9.786102e+001 -2.930214e+001 -1.605036e+002  2.325427e+001  1.215151e+002 -9.021196e+000  1.390451e+002
5.4161875000e+009  5.331454e+000 -9.644982e+001 -2.934543e+001 -1.667266e+002  2.306303e+001  1.227476e+002 -8.901523e+000  1.398727e+002
5.4163125000e+009  5.297348e+000 -9.626707e+001 -2.985401e+001 -1.690384e+002  2.302575e+001  1.213341e+002 -8.630973e+000  1.368924e+002
5.4164375000e+009  5.034522e+000 -9.706548e+001 -2.974734e+001 -1.648458e+002  2.297767e+001  1.215583e+002 -8.574142e+000  1.369781e+002
5.4165625000e+009  4.996747e+000 -9.679828e+001 -3.029541e+001 -1.647738e+002  2.296533e+001  1.221313e+002 -8.277301e+000  1.349656e+002
5.4166875000e+009  4.988880e+000 -9.543439e+001 -3.033472e+001 -1.669631e+002  2.276383e+001  1.224190e+002 -8.173652e+000  1.309409e+002
5.4168125000e+009  4.879634e+000 -9.437081e+001 -3.064599e+001 -1.574245e+002  2.284670e+001  1.237355e+002 -8.203621e+000  1.276980e+002
5.4169375000e+009  5.073716e+000 -9.278746e+001 -3.065216e+001 -1.614772e+002  2.284060e+001  1.246234e+002 -8.431800e+000  1.245713e+002
5.4170625000e+009  5.550764e+000 -9.318864e+001 -3.081683e+001 -1.596603e+002  2.300636e+001  1.260841e+002 -9.121944e+000  1.227302e+002
5.4171875000e+009  5.523411e+000 -9.335024e+001 -2.908557e+001 -1.592168e+002  2.326511e+001  1.256275e+002 -9.250715e+000  1.241670e+002
5.4173125000e+009  5.921967e+000 -9.348989e+001 -2.997727e+001 -1.576875e+002  2.324539e+001  1.254913e+002 -9.805498e+000  1.237012e+002
5.4174375000e+009  6.426872e+000 -9.415673e+001 -2.937439e+001 -1.542118e+002  2.326582e+001  1.260901e+002 -1.025457e+001  1.272052e+002
5.4175625000e+009  5.883710e+000 -9.755792e+001 -2.908950e+001 -1.596102e+002  2.362224e+001  1.251850e+002 -1.000208e+001  1.274817e+002
5.4176875000e+009  5.591675e+000 -9.971466e+001 -2.922145e+001 -1.609638e+002  2.382701e+001  1.245093e+002 -9.803309e+000  1.280995e+002
5.4178125000e+009  5.831073e+000 -9.848072e+001 -2.847895e+001 -1.649700e+002  2.375734e+001  1.246475e+002 -1.000561e+001  1.303630e+002
5.4179375000e+009  5.792303e+000 -9.938245e+001 -2.844858e+001 -1.604449e+002  2.372947e+001  1.239584e+002 -1.018627e+001  1.312359e+002
5.4180625000e+009  5.472784e+000 -1.006754e+002 -2.871262e+001 -1.639015e+002  2.386230e+001  1.231848e+002 -9.989415e+000  1.306994e+002
5.4181875000e+009  5.597178e+000 -1.003026e+002 -2.876283e+001 -1.692357e+002  2.385377e+001  1.235374e+002 -9.996260e+000  1.317771e+002
5.4183125000e+009  5.636007e+000 -1.000752e+002 -2.890013e+001 -1.641070e+002  2.389167e+001  1.223765e+002 -9.990435e+000  1.310982e+002
5.4184375000e+009  5.226487e+000 -1.024441e+002 -2.861695e+001 -1.672755e+002  2.405692e+001  1.220239e+002 -9.692098e+000  1.318077e+002
5.4185625000e+009  5.750042e+000 -1.012170e+002 -2.882384e+001 -1.674336e+002  2.386760e+001  1.226658e+002 -1.005312e+001  1.327708e+002
5.4186875000e+009  5.363631e+000 -1.009956e+002 -2.885904e+001 -1.670991e+002  2.407433e+001  1.215444e+002 -9.666191e+000  1.321253e+002
5.4188125000e+009  5.197698e+000 -1.029283e+002 -2.949794e+001 -1.710873e+002  2.405541e+001  1.215601e+002 -9.897490e+000  1.321286e+002
5.4189375000e+009  5.406532e+000 -1.023700e+002 -2.875520e+001 -1.700208e+002  2.405848e+001  1.213162e+002 -9.794335e+000  1.322576e+002
5.4190625000e+009  5.379560e+000 -1.033572e+002 -2.928862e+001 -1.679651e+002  2.400302e+001  1.214296e+002 -9.922503e+000  1.335456e+002
5.4191875000e+009  5.193227e+000 -1.034997e+002 -2.910989e+001 -1.687492e+002  2.428432e+001  1.213865e+002 -9.482345e+000  1.336585e+002
5.4193125000e+009  5.345724e+000 -1.030669e+002 -2.864281e+001 -1.706906e+002  2.404722e+001  1.208330e+002 -9.776449e+000  1.333336e+002
5.4194375000e+009  5.369120e+000 -1.037158e+002 -2.877949e+001 -1.721940e+002  2.422227e+001  1.204639e+002 -9.505943e+000  1.326011e+002
5.4195625000e+009  5.152803e+000 -1.040273e+002 -2.875275e+001 -1.700984e+002  2.433335e+001  1.200178e+002 -9.408269e+000  1.330697e+002
5.4196875000e+009  5.170081e+000 -1.048558e+002 -2.879610e+001 -1.707463e+002  2.417296e+001  1.195073e+002 -9.731053e+000  1.318370e+002
5.4198125000e+009  5.366916e+000 -1.036184e+002 -2.907453e+001 -1.691608e+002  2.450506e+001  1.205773e+002 -9.126413e+000  1.338885e+002
5.4199375000e+009  5.142730e+000 -1.053957e+002 -2.929786e+001 -1.704989e+002  2.441815e+001  1.199357e+002 -9.397123e+000  1.332543e+002
5.4200625000e+009  5.289502e+000 -1.041240e+002 -2.853831e+001 -1.718822e+002  2.435984e+001  1.192650e+002 -9.331964e+000  1.328893e+002
5.4201875000e+009  5.161066e+000 -1.053828e+002 -2.894430e+001 -1.736553e+002  2.436795e+001  1.201064e+002 -9.355890e+000  1.341916e+002
5.4203125000e+009  5.153398e+000 -1.052416e+002 -2.886846e+001 -1.701742e+002  2.435200e+001  1.193873e+002 -9.481396e+000  1.337229e+002
5.4204375000e+009  5.164543e+000 -1.053254e+002 -2.934703e+001 -1.735165e+002  2.432119e+001  1.195092e+002 -9.495460e+000  1.337170e+002
5.4205625000e+009  4.928528e+000 -1.065089e+002 -2.910049e+001 -1.754332e+002  2.449169e+001  1.177603e+002 -9.235604e+000  1.315518e+002
5.4206875000e+009  4.958947e+000 -1.068862e+002 -2.947288e+001 -1.747826e+002  2.452240e+001  1.185323e+002 -9.278926e+000  1.326542e+002
5.4208125000e+009  4.991747e+000 -1.063585e+002 -2.947265e+001 -1.706995e+002  2.443312e+001  1.186503e+002 -9.441682e+000  1.337921e+002
5.4209375000e+009  4.942704e+000 -1.060059e+002 -2.939004e+001 -1.745427e+002  2.451585e+001  1.185383e+002 -9.235188e+000  1.336611e+002
5.4210625000e+009  4.886541e+000 -1.072427e+002 -2.900492e+001 -1.718502e+002  2.462846e+001  1.176715e+002 -9.093432e+000  1.330297e+002
5.4211875000e+009  4.969388e+000 -1.064312e+002 -2.918478e+001 -1.753011e+002  2.451358e+001  1.172226e+002 -9.328230e+000  1.322201e+002
5.4213125000e+009  4.834454e+000 -1.074487e+002 -2.905233e+001 -1.776745e+002  2.459820e+001  1.173127e+002 -9.157028e+000  1.324605e+002
5.4214375000e+009  4.741381e+000 -1.090636e+002 -2.992344e+001 -1.764562e+002  2.467580e+001  1.168242e+002 -9.177678e+000  1.320708e+002
5.4215625000e+009  4.806073e+000 -1.069720e+002 -2.919722e+001 -1.783048e+002  2.471105e+001  1.171790e+002 -8.977314e+000  1.328304e+002
5.4216875000e+009  4.824004e+000 -1.077710e+002 -2.995522e+001 -1.709434e+002  2.467235e+001  1.166992e+002 -9.186015e+000  1.328970e+002
5.4218125000e+009  4.736870e+000 -1.086423e+002 -2.983458e+001 -1.761359e+002  2.494730e+001  1.161207e+002 -8.766392e+000  1.316821e+002
5.4219375000e+009  4.767194e+000 -1.083279e+002 -2.978481e+001 -1.765824e+002  2.461103e+001  1.163302e+002 -9.226582e+000  1.326427e+002
5.4220625000e+009  4.730553e+000 -1.075413e+002 -2.905622e+001 -1.749472e+002  2.483858e+001  1.164210e+002 -8.801630e+000  1.330972e+002
5.4221875000e+009  4.725549e+000 -1.090374e+002 -2.938717e+001 -1.740381e+002  2.490153e+001  1.159552e+002 -8.791301e+000  1.329391e+002
5.4223125000e+009  4.724112e+000 -1.087147e+002 -2.925299e+001 -1.789244e+002  2.465044e+001  1.148078e+002 -9.153088e+000  1.306712e+002
5.4224375000e+009  4.690732e+000 -1.090505e+002 -2.933558e+001 -1.747985e+002  2.495844e+001  1.161025e+002 -8.641471e+000  1.334898e+002
5.4225625000e+009  4.629138e+000 -1.102092e+002 -2.880671e+001 -1.752971e+002  2.502137e+001  1.155660e+002 -8.580868e+000  1.330557e+002
5.4226875000e+009  4.657704e+000 -1.096088e+002 -2.958095e+001 -1.774023e+002  2.494924e+001  1.150692e+002 -8.785525e+000  1.321917e+002
5.4228125000e+009  4.653573e+000 -1.100297e+002 -3.000372e+001 -1.794730e+002  2.502946e+001  1.154654e+002 -8.676123e+000  1.327569e+002
5.4229375000e+009  4.606437e+000 -1.110084e+002 -2.986475e+001 -1.768783e+002  2.492932e+001  1.145940e+002 -8.826008e+000  1.322297e+002
5.4230625000e+009  4.557514e+000 -1.103127e+002 -2.939402e+001  1.798896e+002  2.498197e+001  1.141367e+002 -8.741513e+000  1.313391e+002
5.4231875000e+009  4.567514e+000 -1.102244e+002 -2.952940e+001  1.785585e+002  2.481337e+001  1.136254e+002 -8.978288e+000  1.310166e+002
5.4233125000e+009  4.476355e+000 -1.113163e+002 -2.978636e+001 -1.773076e+002  2.514709e+001  1.146345e+002 -8.547298e+000  1.326209e+002
5.4234375000e+009  4.489512e+000 -1.107419e+002 -2.961016e+001  1.766397e+002  2.499484e+001  1.140335e+002 -8.711055e+000  1.315677e+002
5.4235625000e+009  4.511743e+000 -1.110760e+002 -2.990994e+001 -1.782769e+002  2.504646e+001  1.139760e+002 -8.711349e+000  1.324722e+002
5.4236875000e+009  4.453014e+000 -1.117206e+002 -2.981236e+001  1.797652e+002  2.519990e+001  1.145077e+002 -8.476891e+000  1.331567e+002
5.4238125000e+009  4.485036e+000 -1.110847e+002 -2.966148e+001 -1.789295e+002  2.510648e+001  1.129142e+002 -8.596622e+000  1.309705e+002
5.4239375000e+009  4.435893e+000 -1.115752e+002 -2.957639e+001  1.781459e+002  2.526168e+001  1.136966e+002 -8.335224e+000  1.324479e+002
5.4240625000e+009  4.405709e+000 -1.118334e+002 -2.977288e+001  1.790143e+002  2.521976e+001  1.137684e+002 -8.449965e+000  1.330158e+002
5.4241875000e+009  4.351329e+000 -1.115596e+002 -2.930354e+001  1.794247e+002  2.520334e+001  1.124020e+002 -8.427548e+000  1.312991e+002
5.4243125000e+009  4.379221e+000 -1.117256e+002 -3.031513e+001  1.788247e+002  2.517447e+001  1.121669e+002 -8.604622e+000  1.312272e+002
5.4244375000e+009  4.311402e+000 -1.126564e+002 -2.970616e+001  1.771634e+002  2.524988e+001  1.131592e+002 -8.398670e+000  1.329447e+002
5.4245625000e+009  4.339009e+000 -1.123411e+002 -2.995253e+001  1.777133e+002  2.538269e+001  1.123254e+002 -8.217072e+000  1.315361e+002
5.4246875000e+009  4.297908e+000 -1.124079e+002 -2.972404e+001  1.793195e+002  2.528627e+001  1.117322e+002 -8.410460e+000  1.312481e+002
5.4248125000e+009  4.271793e+000 -1.132167e+002 -3.051230e+001  1.783547e+002  2.538259e+001  1.118731e+002 -8.280214e+000  1.319804e+002
5.4249375000e+009  4.210672e+000 -1.128061e+002 -2.938013e+001  1.795145e+002  2.530286e+001  1.108323e+002 -8.362148e+000  1.304255e+002
5.4250625000e+009  4.228234e+000 -1.129370e+002 -2.989849e+001  1.758894e+002  2.526467e+001  1.108414e+002 -8.426780e+000  1.308414e+002
5.4251875000e+009  4.154973e+000 -1.134586e+002 -2.992639e+001  1.769147e+002  2.543945e+001  1.112133e+002 -8.149359e+000  1.315324e+002
5.4253125000e+009  4.168844e+000 -1.136543e+002 -3.047335e+001  1.779457e+002  2.541189e+001  1.119365e+002 -8.209641e+000  1.333035e+002
5.4254375000e+009  4.114270e+000 -1.136776e+002 -3.023494e+001  1.726112e+002  2.545988e+001  1.100665e+002 -8.273016e+000  1.300431e+002
5.4255625000e+009  4.073762e+000 -1.138509e+002 -3.059888e+001  1.751786e+002  2.549610e+001  1.108277e+002 -8.182544e+000  1.322463e+002
5.4256875000e+009  4.033815e+000 -1.143927e+002 -3.018013e+001  1.765673e+002  2.552393e+001  1.104918e+002 -8.141976e+000  1.319541e+002
5.4258125000e+009  3.936394e+000 -1.140535e+002 -3.043348e+001  1.761627e+002  2.555968e+001  1.095555e+002 -8.162292e+000  1.308925e+002
5.4259375000e+009  3.896765e+000 -1.146385e+002 -3.029061e+001  1.765748e+002  2.553403e+001  1.098551e+002 -8.266207e+000  1.319624e+002
5.4260625000e+009  3.853384e+000 -1.145987e+002 -2.991555e+001  1.768877e+002  2.557389e+001  1.096684e+002 -8.165130e+000  1.322034e+002
5.4261875000e+009  3.869770e+000 -1.146543e+002 -3.037766e+001  1.738974e+002  2.562646e+001  1.091468e+002 -8.129124e+000  1.314179e+002
5.4263125000e+009  3.770555e+000 -1.149888e+002 -3.027948e+001  1.729877e+002  2.565584e+001  1.095744e+002 -8.117494e+000  1.324076e+002
5.4264375000e+009  3.709736e+000 -1.153730e+002 -2.981372e+001  1.720511e+002  2.560391e+001  1.092205e+002 -8.192709e+000  1.327727e+002
5.4265625000e+009  3.675560e+000 -1.155894e+002 -3.031029e+001  1.774697e+002  2.570209e+001  1.090553e+002 -8.114123e+000  1.330886e+002
5.4266875000e+009  3.572782e+000 -1.156225e+002 -3.063482e+001  1.731213e+002  2.569716e+001  1.089419e+002 -8.153172e+000  1.330724e+002
5.4268125000e+009  3.584023e+000 -1.159874e+002 -3.057277e+001  1.755052e+002  2.576577e+001  1.074902e+002 -8.191005e+000  1.308954e+002
5.4269375000e+009  3.604925e+000 -1.163132e+002 -3.089231e+001  1.736423e+002  2.575034e+001  1.081479e+002 -8.168567e+000  1.324771e+002
5.4270625000e+009  3.504139e+000 -1.165141e+002 -3.078766e+001  1.735718e+002  2.578526e+001  1.084562e+002 -8.145855e+000  1.336389e+002
5.4271875000e+009  3.382636e+000 -1.167614e+002 -3.068751e+001  1.731874e+002  2.582927e+001  1.074176e+002 -8.130016e+000  1.322099e+002
5.4273125000e+009  3.495875e+000 -1.169238e+002 -3.024913e+001  1.739189e+002  2.580901e+001  1.072307e+002 -8.205866e+000  1.323887e+002
5.4274375000e+009  3.362666e+000 -1.171796e+002 -3.059057e+001  1.719817e+002  2.582572e+001  1.070356e+002 -8.157159e+000  1.326452e+002
5.4275625000e+009  3.354662e+000 -1.175108e+002 -3.127746e+001  1.751384e+002  2.590629e+001  1.068264e+002 -8.201577e+000  1.332675e+002
5.4276875000e+009  3.342477e+000 -1.177876e+002 -3.070185e+001  1.760473e+002  2.588386e+001  1.063554e+002 -8.148279e+000  1.322739e+002
5.4278125000e+009  3.320699e+000 -1.179977e+002 -3.057121e+001  1.685835e+002  2.591692e+001  1.063131e+002 -8.172961e+000  1.327101e+002
5.4279375000e+009  3.202462e+000 -1.181827e+002 -3.088178e+001  1.761707e+002  2.593591e+001  1.059271e+002 -8.155112e+000  1.330843e+002
5.4280625000e+009  3.213267e+000 -1.182701e+002 -3.068443e+001  1.756157e+002  2.599104e+001  1.052502e+002 -8.064662e+000  1.319096e+002
5.4281875000e+009  3.093949e+000 -1.179143e+002 -3.049091e+001  1.736792e+002  2.595589e+001  1.059849e+002 -8.111935e+000  1.340814e+002
5.4283125000e+009  2.965342e+000 -1.187107e+002 -3.074169e+001  1.759525e+002  2.599696e+001  1.054022e+002 -8.149796e+000  1.339873e+002
5.4284375000e+009  3.108259e+000 -1.190868e+002 -3.084287e+001  1.698149e+002  2.606681e+001  1.045874e+002 -8.177912e+000  1.319964e+002
5.4285625000e+009  2.990256e+000 -1.196615e+002 -3.097293e+001  1.744339e+002  2.605471e+001  1.048545e+002 -8.172425e+000  1.334533e+002
5.4286875000e+009  3.057107e+000 -1.193831e+002 -3.145639e+001  1.693434e+002  2.605760e+001  1.045606e+002 -8.214110e+000  1.338541e+002
5.4288125000e+009  2.930802e+000 -1.186749e+002 -3.096468e+001  1.696505e+002  2.608484e+001  1.040659e+002 -8.148238e+000  1.327433e+002
5.4289375000e+009  2.797431e+000 -1.194653e+002 -3.083115e+001  1.733037e+002  2.608884e+001  1.040982e+002 -8.198311e+000  1.338458e+002
5.4290625000e+009  2.803448e+000 -1.198229e+002 -3.101778e+001  1.747244e+002  2.615370e+001  1.035423e+002 -8.090647e+000  1.328925e+002
5.4291875000e+009  2.781104e+000 -1.199888e+002 -3.077391e+001  1.726141e+002  2.619918e+001  1.030556e+002 -8.127110e+000  1.326315e+002
5.4293125000e+009  2.657171e+000 -1.205147e+002 -3.101254e+001  1.738713e+002  2.616844e+001  1.029462e+002 -8.202177e+000  1.336877e+002
5.4294375000e+009  2.769323e+000 -1.202721e+002 -3.087189e+001  1.711435e+002  2.617759e+001  1.029255e+002 -8.152250e+000  1.334608e+002
5.4295625000e+009  2.711509e+000 -1.208810e+002 -3.134602e+001  1.714740e+002  2.618890e+001  1.024093e+002 -8.207561e+000  1.340972e+002
5.4296875000e+009  2.535375e+000 -1.207874e+002 -3.128282e+001  1.696669e+002  2.619968e+001  1.023211e+002 -8.219873e+000  1.336360e+002
5.4298125000e+009  2.667864e+000 -1.206400e+002 -3.066735e+001  1.714059e+002  2.621755e+001  1.020734e+002 -8.173341e+000  1.337880e+002
5.4299375000e+009  2.680396e+000 -1.211847e+002 -3.133622e+001  1.692723e+002  2.624547e+001  1.019715e+002 -8.264200e+000  1.338602e+002
5.4300625000e+009  2.457588e+000 -1.217548e+002 -3.114912e+001  1.750529e+002  2.626571e+001  1.016288e+002 -8.175007e+000  1.342484e+002
5.4301875000e+009  2.476653e+000 -1.220860e+002 -3.082141e+001  1.732613e+002  2.624128e+001  1.011060e+002 -8.210515e+000  1.340310e+002
5.4303125000e+009  2.510679e+000 -1.214089e+002 -3.103150e+001  1.696350e+002  2.628299e+001  1.008853e+002 -8.223730e+000  1.339081e+002
5.4304375000e+009  2.439327e+000 -1.220950e+002 -3.201193e+001  1.704510e+002  2.633895e+001  1.006576e+002 -8.255075e+000  1.341422e+002
5.4305625000e+009  2.262126e+000 -1.223320e+002 -3.095758e+001  1.712814e+002  2.633877e+001  1.005843e+002 -8.163916e+000  1.339507e+002
5.4306875000e+009  2.292819e+000 -1.221632e+002 -3.143168e+001  1.740857e+002  2.634379e+001  9.989746e+001 -8.282857e+000  1.344539e+002
5.4308125000e+009  2.095481e+000 -1.224876e+002 -3.144027e+001  1.688040e+002  2.630763e+001  9.964451e+001 -8.250950e+000  1.343957e+002
5.4309375000e+009  2.225602e+000 -1.224232e+002 -3.114425e+001  1.667840e+002  2.629469e+001  9.948034e+001 -8.305856e+000  1.350050e+002
5.4310625000e+009  2.207528e+000 -1.230248e+002 -3.173285e+001  1.726699e+002  2.634871e+001  9.916963e+001 -8.218720e+000  1.348715e+002
5.4311875000e+009  2.100240e+000 -1.232385e+002 -3.170628e+001  1.638193e+002  2.638865e+001  9.937947e+001 -8.328044e+000  1.350032e+002
5.4313125000e+009  2.147673e+000 -1.229048e+002 -3.129510e+001  1.706741e+002  2.637916e+001  9.850152e+001 -8.267643e+000  1.348078e+002
5.4314375000e+009  2.074760e+000 -1.235472e+002 -3.103549e+001  1.683243e+002  2.643363e+001  9.824564e+001 -8.297846e+000  1.342174e+002
5.4315625000e+009  2.020080e+000 -1.240292e+002 -3.185023e+001  1.681579e+002  2.645785e+001  9.840732e+001 -8.282916e+000  1.350383e+002
5.4316875000e+009  1.969317e+000 -1.247530e+002 -3.141184e+001  1.670293e+002  2.640707e+001  9.752615e+001 -8.349513e+000  1.349661e+002
5.4318125000e+009  2.028514e+000 -1.239722e+002 -3.183348e+001  1.720511e+002  2.648949e+001  9.763783e+001 -8.194695e+000  1.349434e+002
5.4319375000e+009  1.887262e+000 -1.246443e+002 -3.182502e+001  1.670897e+002  2.647271e+001  9.728391e+001 -8.348652e+000  1.356954e+002
5.4320625000e+009  1.937550e+000 -1.245838e+002 -3.104098e+001  1.710006e+002  2.648970e+001  9.707608e+001 -8.257327e+000  1.353677e+002
5.4321875000e+009  1.818543e+000 -1.251423e+002 -3.167079e+001  1.691804e+002  2.646785e+001  9.658755e+001 -8.313143e+000  1.355743e+002
5.4323125000e+009  1.811347e+000 -1.252229e+002 -3.162411e+001  1.725427e+002  2.642572e+001  9.579919e+001 -8.350677e+000  1.360392e+002
5.4324375000e+009  1.601404e+000 -1.255418e+002 -3.164826e+001  1.703032e+002  2.648242e+001  9.606051e+001 -8.287724e+000  1.357085e+002
5.4325625000e+009  1.733294e+000 -1.248533e+002 -3.077192e+001  1.732597e+002  2.652420e+001  9.600060e+001 -8.254841e+000  1.346220e+002
5.4326875000e+009  1.717291e+000 -1.258548e+002 -3.246710e+001  1.669493e+002  2.647801e+001  9.515717e+001 -8.396788e+000  1.364646e+002
5.4328125000e+009  1.623585e+000 -1.258910e+002 -3.148327e+001  1.680695e+002  2.658752e+001  9.538604e+001 -8.355017e+000  1.356474e+002
5.4329375000e+009  1.644937e+000 -1.261291e+002 -3.201366e+001  1.677295e+002  2.648471e+001  9.502176e+001 -8.325561e+000  1.360005e+002
5.4330625000e+009  1.533862e+000 -1.265007e+002 -3.240732e+001  1.673336e+002  2.661710e+001  9.476382e+001 -8.304636e+000  1.366483e+002
5.4331875000e+009  1.453585e+000 -1.264466e+002 -3.230526e+001  1.686196e+002  2.661321e+001  9.439361e+001 -8.252793e+000  1.364850e+002
5.4333125000e+009  1.625084e+000 -1.261893e+002 -3.145634e+001  1.659383e+002  2.654064e+001  9.461595e+001 -8.369773e+000  1.362753e+002
5.4334375000e+009  1.467483e+000 -1.266188e+002 -3.161952e+001  1.691114e+002  2.659192e+001  9.348515e+001 -8.370624e+000  1.359980e+002
5.4335625000e+009  1.434148e+000 -1.272052e+002 -3.197491e+001  1.651432e+002  2.668691e+001  9.328720e+001 -8.376561e+000  1.363355e+002
5.4336875000e+009  1.446072e+000 -1.267708e+002 -3.200743e+001  1.688150e+002  2.665853e+001  9.261026e+001 -8.322709e+000  1.361621e+002
5.4338125000e+009  1.247435e+000 -1.277487e+002 -3.192975e+001  1.663636e+002  2.662120e+001  9.270164e+001 -8.427719e+000  1.367469e+002
5.4339375000e+009  1.312473e+000 -1.277699e+002 -3.227060e+001  1.658722e+002  2.664498e+001  9.211065e+001 -8.413430e+000  1.365335e+002
5.4340625000e+009  1.246435e+000 -1.278587e+002 -3.191465e+001  1.665572e+002  2.663773e+001  9.272771e+001 -8.314913e+000  1.367429e+002
5.4341875000e+009  1.193276e+000 -1.280370e+002 -3.203740e+001  1.680094e+002  2.663711e+001  9.191181e+001 -8.431367e+000  1.368329e+002
5.4343125000e+009  1.236734e+000 -1.280479e+002 -3.200062e+001  1.682249e+002  2.662684e+001  9.148180e+001 -8.448986e+000  1.367517e+002
5.4344375000e+009  1.181369e+000 -1.281293e+002 -3.208469e+001  1.701780e+002  2.669935e+001  9.140203e+001 -8.312484e+000  1.371134e+002
5.4345625000e+009  1.185550e+000 -1.285246e+002 -3.262899e+001  1.664040e+002  2.658364e+001  9.133712e+001 -8.415564e+000  1.376303e+002
5.4346875000e+009  1.017641e+000 -1.289594e+002 -3.213207e+001  1.683020e+002  2.666037e+001  9.078687e+001 -8.411201e+000  1.375253e+002
5.4348125000e+009  1.064375e+000 -1.285975e+002 -3.193477e+001  1.677558e+002  2.661667e+001  9.091128e+001 -8.413724e+000  1.376674e+002
5.4349375000e+009  9.893856e-001 -1.295066e+002 -3.269640e+001  1.674173e+002  2.679821e+001  9.039124e+001 -8.297679e+000  1.378679e+002
5.4350625000e+009  9.856853e-001 -1.295652e+002 -3.258926e+001  1.613492e+002  2.667273e+001  8.978044e+001 -8.466573e+000  1.379760e+002
5.4351875000e+009  9.666566e-001 -1.292312e+002 -3.203510e+001  1.655268e+002  2.655947e+001  8.995795e+001 -8.563300e+000  1.380206e+002
5.4353125000e+009  8.170618e-001 -1.298490e+002 -3.206823e+001  1.683728e+002  2.662823e+001  8.975925e+001 -8.387465e+000  1.380712e+002
5.4354375000e+009  9.344632e-001 -1.295062e+002 -3.219187e+001  1.652821e+002  2.681782e+001  8.917191e+001 -8.304247e+000  1.376328e+002
5.4355625000e+009  9.364326e-001 -1.298342e+002 -3.219339e+001  1.610931e+002  2.668102e+001  8.906117e+001 -8.455472e+000  1.379217e+002
5.4356875000e+009  8.014893e-001 -1.299753e+002 -3.179528e+001  1.636068e+002  2.678534e+001  8.880386e+001 -8.361564e+000  1.380053e+002
5.4358125000e+009  7.423814e-001 -1.302574e+002 -3.188694e+001  1.669982e+002  2.671521e+001  8.865646e+001 -8.373043e+000  1.383242e+002
5.4359375000e+009  7.431901e-001 -1.304175e+002 -3.259551e+001  1.671673e+002  2.665759e+001  8.833865e+001 -8.371528e+000  1.384468e+002
5.4360625000e+009  6.573758e-001 -1.307981e+002 -3.242387e+001  1.663813e+002  2.680316e+001  8.805535e+001 -8.257228e+000  1.382431e+002
5.4361875000e+009  6.158538e-001 -1.310306e+002 -3.259581e+001  1.665764e+002  2.684785e+001  8.780831e+001 -8.255857e+000  1.386724e+002
5.4363125000e+009  6.015170e-001 -1.308240e+002 -3.260980e+001  1.686689e+002  2.683228e+001  8.684885e+001 -8.277007e+000  1.374371e+002
5.4364375000e+009  5.567374e-001 -1.310904e+002 -3.278703e+001  1.693323e+002  2.689812e+001  8.691818e+001 -8.195826e+000  1.377117e+002
5.4365625000e+009  5.055684e-001 -1.315009e+002 -3.227915e+001  1.632606e+002  2.674984e+001  8.630119e+001 -8.419455e+000  1.379216e+002
5.4366875000e+009  5.337781e-001 -1.312739e+002 -3.283897e+001  1.658720e+002  2.678999e+001  8.611065e+001 -8.262940e+000  1.378006e+002
5.4368125000e+009  4.355569e-001 -1.317029e+002 -3.254483e+001  1.670985e+002  2.677510e+001  8.626366e+001 -8.221035e+000  1.385816e+002
5.4369375000e+009  4.584497e-001 -1.317659e+002 -3.249404e+001  1.635437e+002  2.696255e+001  8.582484e+001 -8.115523e+000  1.377225e+002
5.4370625000e+009  3.946942e-001 -1.318309e+002 -3.220154e+001  1.662532e+002  2.679273e+001  8.537978e+001 -8.300376e+000  1.383959e+002
5.4371875000e+009  3.604306e-001 -1.322590e+002 -3.295504e+001  1.621923e+002  2.693503e+001  8.557172e+001 -8.152115e+000  1.385734e+002
5.4373125000e+009  3.340104e-001 -1.323300e+002 -3.250988e+001  1.658968e+002  2.681398e+001  8.486973e+001 -8.290073e+000  1.384375e+002
5.4374375000e+009  3.004767e-001 -1.323246e+002 -3.248403e+001  1.650844e+002  2.680998e+001  8.432281e+001 -8.349236e+000  1.381545e+002
5.4375625000e+009  2.857500e-001 -1.324630e+002 -3.262677e+001  1.617167e+002  2.687925e+001  8.445193e+001 -8.240271e+000  1.387592e+002
5.4376875000e+009  1.821954e-001 -1.328402e+002 -3.291544e+001  1.652134e+002  2.676923e+001  8.441093e+001 -8.252225e+000  1.397395e+002
5.4378125000e+009  1.845980e-001 -1.328407e+002 -3.253847e+001  1.655334e+002  2.678327e+001  8.461689e+001 -8.201244e+000  1.399382e+002
5.4379375000e+009  1.609065e-001 -1.333374e+002 -3.231871e+001  1.636415e+002  2.670219e+001  8.352241e+001 -8.449548e+000  1.389177e+002
5.4380625000e+009  1.705170e-001 -1.336196e+002 -3.235638e+001  1.605942e+002  2.696786e+001  8.441135e+001 -7.969041e+000  1.400289e+002
5.4381875000e+009  1.267417e-001 -1.341576e+002 -3.355220e+001  1.613778e+002  2.671583e+001  8.225843e+001 -8.482380e+000  1.383773e+002
5.4383125000e+009  1.528021e-001 -1.340768e+002 -3.219215e+001  1.588891e+002  2.695522e+001  8.424442e+001 -7.981073e+000  1.405988e+002
5.4384375000e+009  1.135987e-001 -1.345590e+002 -3.243624e+001  1.616914e+002  2.690281e+001  8.317739e+001 -8.207109e+000  1.394741e+002
5.4385625000e+009  1.353231e-001 -1.348072e+002 -3.243494e+001  1.629043e+002  2.654412e+001  8.066554e+001 -8.900841e+000  1.380039e+002
5.4386875000e+009  4.595705e-002 -1.350481e+002 -3.260675e+001  1.637363e+002  2.677881e+001  8.212908e+001 -8.323332e+000  1.391685e+002
5.4388125000e+009 -1.625504e-002 -1.351908e+002 -3.259807e+001  1.644238e+002  2.693564e+001  8.254159e+001 -8.135920e+000  1.395035e+002
5.4389375000e+009  6.337926e-003 -1.355270e+002 -3.287341e+001  1.624155e+002  2.686431e+001  8.118441e+001 -8.180016e+000  1.387434e+002
5.4390625000e+009 -1.377057e-002 -1.361354e+002 -3.303345e+001  1.607766e+002  2.685014e+001  8.191214e+001 -8.207103e+000  1.399353e+002
5.4391875000e+009  3.880149e-004 -1.357571e+002 -3.215995e+001  1.604597e+002  2.675383e+001  8.188112e+001 -8.469167e+000  1.415618e+002
5.4393125000e+009 -7.039139e-002 -1.366573e+002 -3.286366e+001  1.571733e+002  2.662597e+001  8.045789e+001 -8.627442e+000  1.405499e+002
5.4394375000e+009 -5.847845e-002 -1.364792e+002 -3.170225e+001  1.607462e+002  2.676783e+001  8.067619e+001 -8.469508e+000  1.398258e+002
5.4395625000e+009 -7.858995e-002 -1.367525e+002 -3.236959e+001  1.625439e+002  2.671170e+001  7.981674e+001 -8.537758e+000  1.391173e+002
5.4396875000e+009 -1.000379e-001 -1.375128e+002 -3.267938e+001  1.613231e+002  2.667932e+001  7.852528e+001 -8.643126e+000  1.377092e+002
5.4398125000e+009 -1.506311e-001 -1.375780e+002 -3.273840e+001  1.560493e+002  2.670822e+001  7.912411e+001 -8.527276e+000  1.395240e+002
5.4399375000e+009 -1.703973e-001 -1.372955e+002 -3.214444e+001  1.592278e+002  2.678257e+001  7.949370e+001 -8.434421e+000  1.395233e+002
5.4400625000e+009 -2.136830e-001 -1.380664e+002 -3.302901e+001  1.634956e+002  2.672112e+001  7.719205e+001 -8.690093e+000  1.364468e+002
5.4401875000e+009 -2.117146e-001 -1.384533e+002 -3.316236e+001  1.590997e+002  2.676425e+001  7.849548e+001 -8.436451e+000  1.394602e+002
5.4403125000e+009 -2.490384e-001 -1.386547e+002 -3.284404e+001  1.617880e+002  2.675668e+001  7.873135e+001 -8.392159e+000  1.394435e+002
5.4404375000e+009 -2.182027e-001 -1.389986e+002 -3.250536e+001  1.623528e+002  2.663763e+001  7.691278e+001 -8.720170e+000  1.376446e+002
5.4405625000e+009 -2.776139e-001 -1.387718e+002 -3.263880e+001  1.626331e+002  2.664537e+001  7.691189e+001 -8.714983e+000  1.379763e+002
5.4406875000e+009 -3.233311e-001 -1.394633e+002 -3.309593e+001  1.574662e+002  2.670799e+001  7.706022e+001 -8.479656e+000  1.390871e+002
5.4408125000e+009 -2.697945e-001 -1.401943e+002 -3.248133e+001  1.569457e+002  2.671002e+001  7.511717e+001 -8.708375e+000  1.362439e+002
5.4409375000e+009 -3.506097e-001 -1.399173e+002 -3.250904e+001  1.540918e+002  2.668677e+001  7.680267e+001 -8.533011e+000  1.399730e+002
5.4410625000e+009 -3.884525e-001 -1.398388e+002 -3.261478e+001  1.591284e+002  2.673992e+001  7.656793e+001 -8.418738e+000  1.391105e+002
5.4411875000e+009 -3.199891e-001 -1.404352e+002 -3.282676e+001  1.638914e+002  2.660247e+001  7.551628e+001 -8.748390e+000  1.380812e+002
5.4413125000e+009 -4.254205e-001 -1.405902e+002 -3.277908e+001  1.559732e+002  2.670398e+001  7.521043e+001 -8.573868e+000  1.378818e+002
5.4414375000e+009 -4.607379e-001 -1.406881e+002 -3.287184e+001  1.554592e+002  2.655569e+001  7.522169e+001 -8.797987e+000  1.393613e+002
5.4415625000e+009 -4.739080e-001 -1.414998e+002 -3.309301e+001  1.601270e+002  2.651324e+001  7.411533e+001 -8.986949e+000  1.377284e+002
5.4416875000e+009 -4.530309e-001 -1.416046e+002 -3.310756e+001  1.572955e+002  2.661038e+001  7.386900e+001 -8.687446e+000  1.371713e+002
5.4418125000e+009 -4.572546e-001 -1.412178e+002 -3.258407e+001  1.606051e+002  2.662376e+001  7.359972e+001 -8.884337e+000  1.361015e+002
5.4419375000e+009 -4.415593e-001 -1.419527e+002 -3.261499e+001  1.562083e+002  2.659824e+001  7.355930e+001 -8.763266e+000  1.376682e+002
5.4420625000e+009 -4.779235e-001 -1.418284e+002 -3.234906e+001  1.582901e+002  2.660279e+001  7.389753e+001 -8.786320e+000  1.385400e+002
5.4421875000e+009 -5.869588e-001 -1.426009e+002 -3.342707e+001  1.522912e+002  2.652053e+001  7.249641e+001 -8.915881e+000  1.374011e+002
5.4423125000e+009 -5.677031e-001 -1.425515e+002 -3.279133e+001  1.539695e+002  2.654203e+001  7.221242e+001 -8.975944e+000  1.370096e+002
5.4424375000e+009 -5.146813e-001 -1.426920e+002 -3.233470e+001  1.595095e+002  2.660514e+001  7.294273e+001 -8.616330e+000  1.377511e+002
5.4425625000e+009 -5.831769e-001 -1.425962e+002 -3.208777e+001  1.574300e+002  2.655150e+001  7.242590e+001 -8.823131e+000  1.381245e+002
5.4426875000e+009 -6.514757e-001 -1.433391e+002 -3.271748e+001  1.546571e+002  2.653608e+001  7.131668e+001 -8.972560e+000  1.365077e+002
5.4428125000e+009 -6.682123e-001 -1.429700e+002 -3.331782e+001  1.607456e+002  2.649949e+001  7.113004e+001 -8.961918e+000  1.361367e+002
5.4429375000e+009 -7.841237e-001 -1.437717e+002 -3.304085e+001  1.548753e+002  2.654519e+001  7.237258e+001 -8.567159e+000  1.393333e+002
5.4430625000e+009 -6.563668e-001 -1.441262e+002 -3.296058e+001  1.553681e+002  2.655303e+001  7.074187e+001 -8.771745e+000  1.363448e+002
5.4431875000e+009 -7.062708e-001 -1.444073e+002 -3.294504e+001  1.568624e+002  2.640973e+001  7.100681e+001 -8.940535e+000  1.385406e+002
5.4433125000e+009 -7.583412e-001 -1.440393e+002 -3.227921e+001  1.550450e+002  2.649354e+001  7.169212e+001 -8.750134e+000  1.405028e+002
5.4434375000e+009 -6.998736e-001 -1.448106e+002 -3.246685e+001  1.576807e+002  2.650892e+001  6.955064e+001 -9.003104e+000  1.351918e+002
5.4435625000e+009 -7.064500e-001 -1.451061e+002 -3.261113e+001  1.561984e+002  2.650386e+001  6.996212e+001 -8.890523e+000  1.365126e+002
5.4436875000e+009 -8.966124e-001 -1.449774e+002 -3.327153e+001  1.548793e+002  2.647644e+001  7.002583e+001 -8.778304e+000  1.375058e+002
5.4438125000e+009 -7.340882e-001 -1.458049e+002 -3.332812e+001  1.555091e+002  2.644029e+001  6.904826e+001 -8.911856e+000  1.363681e+002
5.4439375000e+009 -8.401110e-001 -1.456938e+002 -3.316289e+001  1.556431e+002  2.647346e+001  6.806165e+001 -9.075243e+000  1.342993e+002
5.4440625000e+009 -9.248860e-001 -1.455164e+002 -3.292318e+001  1.540043e+002  2.646754e+001  6.892554e+001 -8.854269e+000  1.371572e+002
5.4441875000e+009 -9.408949e-001 -1.462725e+002 -3.366291e+001  1.563923e+002  2.644976e+001  6.784816e+001 -8.892488e+000  1.339373e+002
5.4443125000e+009 -9.456005e-001 -1.459238e+002 -3.298957e+001  1.566084e+002  2.645684e+001  6.850841e+001 -8.765227e+000  1.377362e+002
5.4444375000e+009 -1.009835e+000 -1.460009e+002 -3.282317e+001  1.537422e+002  2.645738e+001  6.810049e+001 -8.751923e+000  1.368279e+002
5.4445625000e+009 -8.456485e-001 -1.468008e+002 -3.228547e+001  1.534286e+002  2.647952e+001  6.650330e+001 -9.082356e+000  1.332510e+002
5.4446875000e+009 -9.530420e-001 -1.466700e+002 -3.297330e+001  1.576327e+002  2.639846e+001  6.692932e+001 -8.992616e+000  1.343940e+002
5.4448125000e+009 -1.006932e+000 -1.473714e+002 -3.335780e+001  1.515478e+002  2.637129e+001  6.684804e+001 -9.150986e+000  1.352403e+002
5.4449375000e+009 -1.023239e+000 -1.474037e+002 -3.304198e+001  1.537945e+002  2.641020e+001  6.533501e+001 -9.095380e+000  1.311871e+002
5.4450625000e+009 -1.014871e+000 -1.476669e+002 -3.272921e+001  1.563321e+002  2.645414e+001  6.500533e+001 -9.016439e+000  1.303739e+002
5.4451875000e+009 -1.150778e+000 -1.472136e+002 -3.311881e+001  1.526119e+002  2.638499e+001  6.558418e+001 -9.025631e+000  1.331398e+002
5.4453125000e+009 -1.143423e+000 -1.478379e+002 -3.321772e+001  1.537319e+002  2.635627e+001  6.484294e+001 -9.133646e+000  1.318728e+002
5.4454375000e+009 -1.104246e+000 -1.481408e+002 -3.304081e+001  1.530173e+002  2.640171e+001  6.420987e+001 -9.043301e+000  1.304735e+002
5.4455625000e+009 -1.141210e+000 -1.484237e+002 -3.293521e+001  1.512999e+002  2.635732e+001  6.476128e+001 -9.015817e+000  1.334933e+002
5.4456875000e+009 -1.110101e+000 -1.480334e+002 -3.287770e+001  1.570891e+002  2.634171e+001  6.397249e+001 -9.173381e+000  1.314388e+002
5.4458125000e+009 -1.143307e+000 -1.486823e+002 -3.326146e+001  1.539454e+002  2.633796e+001  6.356796e+001 -9.054260e+000  1.308697e+002
5.4459375000e+009 -1.218475e+000 -1.490239e+002 -3.296136e+001  1.518437e+002  2.631277e+001  6.364142e+001 -9.234112e+000  1.315774e+002
5.4460625000e+009 -1.089419e+000 -1.494837e+002 -3.287640e+001  1.542705e+002  2.632381e+001  6.269165e+001 -9.171801e+000  1.291140e+002
5.4461875000e+009 -1.207963e+000 -1.491367e+002 -3.257372e+001  1.564863e+002  2.631381e+001  6.252717e+001 -9.027629e+000  1.296621e+002
5.4463125000e+009 -1.317507e+000 -1.494342e+002 -3.300196e+001  1.529170e+002  2.627979e+001  6.318457e+001 -9.023609e+000  1.338655e+002
5.4464375000e+009 -1.157005e+000 -1.497235e+002 -3.269957e+001  1.528923e+002  2.630486e+001  6.155982e+001 -9.073514e+000  1.274844e+002
5.4465625000e+009 -1.287915e+000 -1.500099e+002 -3.253288e+001  1.538000e+002  2.628037e+001  6.141884e+001 -9.086229e+000  1.278953e+002
5.4466875000e+009 -1.317595e+000 -1.500161e+002 -3.292181e+001  1.538566e+002  2.624256e+001  6.215462e+001 -9.225679e+000  1.316731e+002
5.4468125000e+009 -1.317468e+000 -1.506376e+002 -3.357394e+001  1.517305e+002  2.624282e+001  6.125852e+001 -9.011168e+000  1.296689e+002
5.4469375000e+009 -1.317066e+000 -1.506337e+002 -3.351115e+001  1.531888e+002  2.623539e+001  6.119399e+001 -9.129193e+000  1.293600e+002
5.4470625000e+009 -1.461794e+000 -1.511734e+002 -3.306920e+001  1.500053e+002  2.617066e+001  6.070459e+001 -9.191073e+000  1.278319e+002
5.4471875000e+009 -1.439363e+000 -1.513553e+002 -3.362890e+001  1.527162e+002  2.623854e+001  6.043742e+001 -8.940873e+000  1.299487e+002
5.4473125000e+009 -1.343361e+000 -1.513853e+002 -3.287603e+001  1.483982e+002  2.620159e+001  5.960987e+001 -9.163736e+000  1.253781e+002
5.4474375000e+009 -1.405926e+000 -1.514335e+002 -3.323463e+001  1.542172e+002  2.621625e+001  5.969726e+001 -9.038454e+000  1.266395e+002
5.4475625000e+009 -1.280962e+000 -1.519990e+002 -3.201666e+001  1.519950e+002  2.618631e+001  5.937840e+001 -9.229220e+000  1.294913e+002
5.4476875000e+009 -1.391435e+000 -1.520379e+002 -3.330578e+001  1.511747e+002  2.614824e+001  5.883831e+001 -9.084526e+000  1.255152e+002
5.4478125000e+009 -1.496014e+000 -1.522311e+002 -3.292533e+001  1.544069e+002  2.617170e+001  5.936892e+001 -9.187122e+000  1.321355e+002
5.4479375000e+009 -1.468224e+000 -1.528416e+002 -3.233154e+001  1.477145e+002  2.614520e+001  5.827169e+001 -9.056004e+000  1.282922e+002
5.4480625000e+009 -1.430032e+000 -1.527675e+002 -3.290149e+001  1.471507e+002  2.614528e+001  5.785314e+001 -8.945352e+000  1.280721e+002
5.4481875000e+009 -1.608256e+000 -1.527397e+002 -3.325335e+001  1.515847e+002  2.611818e+001  5.832557e+001 -9.311398e+000  1.285926e+002
5.4483125000e+009 -1.522424e+000 -1.531064e+002 -3.331944e+001  1.518930e+002  2.608335e+001  5.748906e+001 -9.176132e+000  1.250653e+002
5.4484375000e+009 -1.477149e+000 -1.536750e+002 -3.235519e+001  1.472090e+002  2.612101e+001  5.686341e+001 -9.103788e+000  1.247998e+002
5.4485625000e+009 -1.581528e+000 -1.538026e+002 -3.326563e+001  1.506166e+002  2.606747e+001  5.732672e+001 -9.360345e+000  1.266904e+002
5.4486875000e+009 -1.593551e+000 -1.540917e+002 -3.292390e+001  1.477926e+002  2.610084e+001  5.652319e+001 -8.941638e+000  1.248260e+002
5.4488125000e+009 -1.480830e+000 -1.541197e+002 -3.287595e+001  1.513598e+002  2.613855e+001  5.596082e+001 -9.070833e+000  1.241750e+002
5.4489375000e+009 -1.596420e+000 -1.546838e+002 -3.271710e+001  1.455201e+002  2.605108e+001  5.613459e+001 -9.166762e+000  1.260956e+002
5.4490625000e+009 -1.617818e+000 -1.546022e+002 -3.326588e+001  1.485080e+002  2.607267e+001  5.554937e+001 -8.960807e+000  1.236794e+002
5.4491875000e+009 -1.671892e+000 -1.549116e+002 -3.280194e+001  1.514103e+002  2.605729e+001  5.521986e+001 -9.143330e+000  1.241286e+002
5.4493125000e+009 -1.636961e+000 -1.553073e+002 -3.248920e+001  1.491391e+002  2.606628e+001  5.511509e+001 -9.142307e+000  1.235710e+002
5.4494375000e+009 -1.698106e+000 -1.556081e+002 -3.309203e+001  1.479296e+002  2.603306e+001  5.473460e+001 -9.020933e+000  1.224238e+002
5.4495625000e+009 -1.565699e+000 -1.557388e+002 -3.211964e+001  1.480251e+002  2.605776e+001  5.417829e+001 -9.035764e+000  1.236217e+002
5.4496875000e+009 -1.650937e+000 -1.557947e+002 -3.260709e+001  1.506805e+002  2.602603e+001  5.445078e+001 -9.326385e+000  1.230654e+002
5.4498125000e+009 -1.602766e+000 -1.558972e+002 -3.236638e+001  1.494417e+002  2.600408e+001  5.342283e+001 -8.943752e+000  1.210524e+002
5.4499375000e+009 -1.624797e+000 -1.564982e+002 -3.227727e+001  1.495078e+002  2.593704e+001  5.304129e+001 -8.907497e+000  1.203515e+002
5.4500625000e+009 -1.745348e+000 -1.566319e+002 -3.296898e+001  1.504727e+002  2.598907e+001  5.284912e+001 -8.791242e+000  1.206925e+002
5.4501875000e+009 -1.718367e+000 -1.571085e+002 -3.267248e+001  1.456555e+002  2.591320e+001  5.214912e+001 -8.734417e+000  1.199657e+002
5.4503125000e+009 -1.672956e+000 -1.567820e+002 -3.251151e+001  1.517857e+002  2.592101e+001  5.232097e+001 -8.976656e+000  1.188542e+002
5.4504375000e+009 -1.757384e+000 -1.570689e+002 -3.294347e+001  1.506352e+002  2.592924e+001  5.210580e+001 -8.879506e+000  1.196716e+002
5.4505625000e+009 -1.732582e+000 -1.575430e+002 -3.221287e+001  1.506489e+002  2.595184e+001  5.205814e+001 -9.168895e+000  1.201834e+002
5.4506875000e+009 -1.745288e+000 -1.571718e+002 -3.305811e+001  1.489872e+002  2.593561e+001  5.126320e+001 -8.711691e+000  1.186471e+002
5.4508125000e+009 -1.782175e+000 -1.576467e+002 -3.226929e+001  1.443715e+002  2.589614e+001  5.141144e+001 -9.008328e+000  1.200427e+002
5.4509375000e+009 -1.829050e+000 -1.576754e+002 -3.324718e+001  1.485890e+002  2.588991e+001  5.060194e+001 -8.949647e+000  1.176205e+002
5.4510625000e+009 -1.852877e+000 -1.579898e+002 -3.254818e+001  1.428856e+002  2.585186e+001  5.051188e+001 -8.666181e+000  1.176134e+002
5.4511875000e+009 -1.833348e+000 -1.582007e+002 -3.299495e+001  1.461049e+002  2.592476e+001  4.994175e+001 -8.858126e+000  1.181569e+002
5.4513125000e+009 -1.807164e+000 -1.581706e+002 -3.241745e+001  1.465411e+002  2.591594e+001  4.973180e+001 -8.796968e+000  1.178891e+002
5.4514375000e+009 -1.815473e+000 -1.580782e+002 -3.339112e+001  1.454574e+002  2.579288e+001  4.893340e+001 -8.405836e+000  1.145353e+002
5.4515625000e+009 -1.868103e+000 -1.585698e+002 -3.249179e+001  1.456238e+002  2.586888e+001  4.963309e+001 -8.884534e+000  1.171149e+002
5.4516875000e+009 -1.854653e+000 -1.585248e+002 -3.261887e+001  1.426367e+002  2.585578e+001  4.909602e+001 -8.767454e+000  1.160402e+002
5.4518125000e+009 -1.847252e+000 -1.582839e+002 -3.255337e+001  1.443957e+002  2.586020e+001  4.872756e+001 -8.836784e+000  1.161116e+002
5.4519375000e+009 -1.863770e+000 -1.588919e+002 -3.271530e+001  1.436423e+002  2.587469e+001  4.793727e+001 -8.692918e+000  1.157253e+002
5.4520625000e+009 -1.878819e+000 -1.591100e+002 -3.233592e+001  1.429413e+002  2.580808e+001  4.764874e+001 -8.575412e+000  1.149198e+002
5.4521875000e+009 -1.883236e+000 -1.590709e+002 -3.214184e+001  1.425288e+002  2.581153e+001  4.784571e+001 -8.655754e+000  1.151148e+002
5.4523125000e+009 -1.903917e+000 -1.589846e+002 -3.297734e+001  1.490640e+002  2.585103e+001  4.756587e+001 -8.814222e+000  1.139853e+002
5.4524375000e+009 -1.924103e+000 -1.596750e+002 -3.228510e+001  1.414701e+002  2.577120e+001  4.708955e+001 -8.606641e+000  1.141933e+002
5.4525625000e+009 -1.983679e+000 -1.594654e+002 -3.298011e+001  1.387333e+002  2.578838e+001  4.666967e+001 -8.390755e+000  1.130672e+002
5.4526875000e+009 -1.945497e+000 -1.593825e+002 -3.251030e+001  1.457574e+002  2.581410e+001  4.688740e+001 -8.736959e+000  1.129816e+002
5.4528125000e+009 -1.889255e+000 -1.598367e+002 -3.225873e+001  1.455627e+002  2.578766e+001  4.565827e+001 -8.531267e+000  1.128898e+002
5.4529375000e+009 -1.979879e+000 -1.600485e+002 -3.189236e+001  1.409459e+002  2.576701e+001  4.588216e+001 -8.550833e+000  1.125849e+002
5.4530625000e+009 -1.965101e+000 -1.596757e+002 -3.261904e+001  1.416829e+002  2.585994e+001  4.647216e+001 -8.722995e+000  1.122390e+002
5.4531875000e+009 -1.930884e+000 -1.599263e+002 -3.246219e+001  1.444014e+002  2.578216e+001  4.488821e+001 -8.483959e+000  1.114794e+002
5.4533125000e+009 -1.949570e+000 -1.603037e+002 -3.255597e+001  1.423435e+002  2.564758e+001  4.498492e+001 -8.476789e+000  1.104427e+002
5.4534375000e+009 -2.022465e+000 -1.602491e+002 -3.250086e+001  1.429171e+002  2.569334e+001  4.495386e+001 -8.481057e+000  1.103330e+002
5.4535625000e+009 -2.004738e+000 -1.605070e+002 -3.244209e+001  1.420255e+002  2.571215e+001  4.442743e+001 -8.521089e+000  1.100837e+002
5.4536875000e+009 -1.969475e+000 -1.604415e+002 -3.267741e+001  1.406734e+002  2.567779e+001  4.363340e+001 -8.301767e+000  1.098009e+002
5.4538125000e+009 -2.054615e+000 -1.607239e+002 -3.247276e+001  1.405086e+002  2.578265e+001  4.446013e+001 -8.539450e+000  1.095708e+002
5.4539375000e+009 -2.007534e+000 -1.611324e+002 -3.181023e+001  1.435747e+002  2.576280e+001  4.385468e+001 -8.581884e+000  1.098222e+002
5.4540625000e+009 -2.066045e+000 -1.611331e+002 -3.230236e+001  1.384530e+002  2.565908e+001  4.266869e+001 -8.316114e+000  1.087804e+002
5.4541875000e+009 -2.106410e+000 -1.607592e+002 -3.345853e+001  1.372669e+002  2.567790e+001  4.349091e+001 -8.359550e+000  1.078291e+002
5.4543125000e+009 -2.096122e+000 -1.611506e+002 -3.274847e+001  1.400644e+002  2.565481e+001  4.338601e+001 -8.455621e+000  1.075930e+002
5.4544375000e+009 -2.078659e+000 -1.612605e+002 -3.266053e+001  1.418081e+002  2.559238e+001  4.136785e+001 -8.261601e+000  1.065983e+002
5.4545625000e+009 -2.111576e+000 -1.613962e+002 -3.210535e+001  1.410967e+002  2.562505e+001  4.197110e+001 -8.424380e+000  1.076057e+002
5.4546875000e+009 -2.050161e+000 -1.620272e+002 -3.230231e+001  1.368077e+002  2.562723e+001  4.166061e+001 -8.243178e+000  1.062386e+002
5.4548125000e+009 -2.037193e+000 -1.622007e+002 -3.196189e+001  1.403008e+002  2.566091e+001  4.147046e+001 -8.274651e+000  1.063272e+002
5.4549375000e+009 -2.101839e+000 -1.617234e+002 -3.323925e+001  1.408275e+002  2.559491e+001  4.061514e+001 -8.282390e+000  1.046946e+002
5.4550625000e+009 -2.090616e+000 -1.624197e+002 -3.219368e+001  1.358063e+002  2.561138e+001  4.122863e+001 -8.268407e+000  1.052528e+002
5.4551875000e+009 -2.065315e+000 -1.624015e+002 -3.251998e+001  1.414772e+002  2.558307e+001  4.030174e+001 -8.274957e+000  1.042084e+002
5.4553125000e+009 -2.184982e+000 -1.626093e+002 -3.225655e+001  1.389693e+002  2.553324e+001  4.102044e+001 -8.294852e+000  1.046434e+002
5.4554375000e+009 -2.110188e+000 -1.622929e+002 -3.223279e+001  1.419793e+002  2.561787e+001  4.039177e+001 -8.314338e+000  1.039601e+002
5.4555625000e+009 -2.153050e+000 -1.629761e+002 -3.224691e+001  1.409966e+002  2.550947e+001  3.934921e+001 -8.207160e+000  1.034578e+002
5.4556875000e+009 -2.105174e+000 -1.625353e+002 -3.241933e+001  1.405399e+002  2.558408e+001  3.935836e+001 -8.199173e+000  1.029572e+002
5.4558125000e+009 -2.164749e+000 -1.624810e+002 -3.236826e+001  1.384561e+002  2.566436e+001  3.948072e+001 -8.185503e+000  1.027064e+002
5.4559375000e+009 -2.144222e+000 -1.635018e+002 -3.191004e+001  1.377717e+002  2.559708e+001  3.857494e+001 -8.100267e+000  1.026711e+002
5.4560625000e+009 -2.244692e+000 -1.622722e+002 -3.252343e+001  1.359309e+002  2.552841e+001  3.994669e+001 -8.079153e+000  1.025547e+002
5.4561875000e+009 -2.256970e+000 -1.631228e+002 -3.237760e+001  1.348365e+002  2.554633e+001  3.826873e+001 -8.022941e+000  1.012431e+002
5.4563125000e+009 -2.169641e+000 -1.636687e+002 -3.206995e+001  1.355995e+002  2.550941e+001  3.781370e+001 -7.918640e+000  1.009109e+002
5.4564375000e+009 -2.257831e+000 -1.630879e+002 -3.301624e+001  1.373105e+002  2.555071e+001  3.814363e+001 -7.982803e+000  1.003013e+002
5.4565625000e+009 -2.182940e+000 -1.634471e+002 -3.197149e+001  1.378138e+002  2.551641e+001  3.793687e+001 -8.118941e+000  1.005705e+002
5.4566875000e+009 -2.125468e+000 -1.640827e+002 -3.228875e+001  1.398157e+002  2.547537e+001  3.628330e+001 -8.000116e+000  9.943817e+001
5.4568125000e+009 -2.358409e+000 -1.636679e+002 -3.233445e+001  1.323273e+002  2.550812e+001  3.696559e+001 -7.776194e+000  9.933055e+001
5.4569375000e+009 -2.244371e+000 -1.641088e+002 -3.252784e+001  1.364154e+002  2.551587e+001  3.677748e+001 -7.857299e+000  9.885750e+001
5.4570625000e+009 -2.206399e+000 -1.648255e+002 -3.214979e+001  1.364678e+002  2.537097e+001  3.589498e+001 -7.837097e+000  9.871964e+001
5.4571875000e+009 -2.313356e+000 -1.644159e+002 -3.230266e+001  1.340173e+002  2.545358e+001  3.671642e+001 -7.824771e+000  9.809889e+001
5.4573125000e+009 -2.334195e+000 -1.644534e+002 -3.234721e+001  1.327113e+002  2.549248e+001  3.557855e+001 -7.690204e+000  9.767762e+001
5.4574375000e+009 -2.224573e+000 -1.650875e+002 -3.216951e+001  1.362616e+002  2.542475e+001  3.450410e+001 -7.833595e+000  9.687650e+001
5.4575625000e+009 -2.457533e+000 -1.649468e+002 -3.251818e+001  1.347134e+002  2.543502e+001  3.532403e+001 -7.707280e+000  9.689111e+001
5.4576875000e+009 -2.422034e+000 -1.655015e+002 -3.203401e+001  1.310028e+002  2.540826e+001  3.478855e+001 -7.550639e+000  9.641358e+001
5.4578125000e+009 -2.278719e+000 -1.657894e+002 -3.196817e+001  1.350574e+002  2.539837e+001  3.460712e+001 -7.716500e+000  9.646780e+001
5.4579375000e+009 -2.483808e+000 -1.653807e+002 -3.232166e+001  1.364106e+002  2.539444e+001  3.387379e+001 -7.635175e+000  9.487881e+001
5.4580625000e+009 -2.331547e+000 -1.656342e+002 -3.206017e+001  1.364614e+002  2.538345e+001  3.374704e+001 -7.646720e+000  9.527991e+001
5.4581875000e+009 -2.493533e+000 -1.654966e+002 -3.213606e+001  1.324282e+002  2.536625e+001  3.285877e+001 -7.578888e+000  9.404549e+001
5.4583125000e+009 -2.376359e+000 -1.658687e+002 -3.244073e+001  1.355578e+002  2.538083e+001  3.343092e+001 -7.520159e+000  9.446475e+001
5.4584375000e+009 -2.436469e+000 -1.653176e+002 -3.212572e+001  1.322813e+002  2.535981e+001  3.328331e+001 -7.469175e+000  9.427061e+001
5.4585625000e+009 -2.453853e+000 -1.658915e+002 -3.250793e+001  1.329088e+002  2.535477e+001  3.231837e+001 -7.471616e+000  9.309158e+001
5.4586875000e+009 -2.504615e+000 -1.653483e+002 -3.251082e+001  1.376107e+002  2.534690e+001  3.279149e+001 -7.563259e+000  9.301151e+001
5.4588125000e+009 -2.422721e+000 -1.657631e+002 -3.269524e+001  1.346864e+002  2.534937e+001  3.186531e+001 -7.369046e+000  9.189749e+001
5.4589375000e+009 -2.239663e+000 -1.672689e+002 -3.202366e+001  1.315289e+002  2.530662e+001  3.129760e+001 -7.330823e+000  9.203333e+001
5.4590625000e+009 -2.368127e+000 -1.667783e+002 -3.232932e+001  1.302180e+002  2.528972e+001  3.164557e+001 -7.284103e+000  9.168527e+001
5.4591875000e+009 -2.419107e+000 -1.669617e+002 -3.223219e+001  1.351855e+002  2.525431e+001  3.108208e+001 -7.366671e+000  9.121727e+001
5.4593125000e+009 -2.409704e+000 -1.669120e+002 -3.199978e+001  1.330266e+002  2.535431e+001  3.039624e+001 -7.251085e+000  9.070487e+001
5.4594375000e+009 -2.567515e+000 -1.670596e+002 -3.245104e+001  1.306956e+002  2.526206e+001  3.043255e+001 -7.173488e+000  9.006419e+001
5.4595625000e+009 -2.512079e+000 -1.672542e+002 -3.165507e+001  1.312878e+002  2.533144e+001  2.957751e+001 -7.205727e+000  8.990237e+001
5.4596875000e+009 -2.383330e+000 -1.679910e+002 -3.257418e+001  1.327242e+002  2.519719e+001  2.927584e+001 -7.271233e+000  8.862608e+001
5.4598125000e+009 -2.651367e+000 -1.674567e+002 -3.255393e+001  1.306643e+002  2.524226e+001  2.953922e+001 -7.017141e+000  8.893589e+001
5.4599375000e+009 -2.605715e+000 -1.668900e+002 -3.266174e+001  1.327274e+002  2.518359e+001  3.000986e+001 -7.131357e+000  8.920636e+001
5.4600625000e+009 -2.392980e+000 -1.685652e+002 -3.215351e+001  1.269556e+002  2.520415e+001  2.860221e+001 -6.839526e+000  8.820878e+001
5.4601875000e+009 -2.569178e+000 -1.682090e+002 -3.196173e+001  1.295383e+002  2.515505e+001  2.892823e+001 -6.978037e+000  8.910153e+001
5.4603125000e+009 -2.711746e+000 -1.675009e+002 -3.245778e+001  1.299924e+002  2.517631e+001  2.886808e+001 -6.847363e+000  8.853048e+001
5.4604375000e+009 -2.451255e+000 -1.687707e+002 -3.202859e+001  1.264274e+002  2.513567e+001  2.761411e+001 -6.757766e+000  8.689366e+001
5.4605625000e+009 -2.636073e+000 -1.685583e+002 -3.213642e+001  1.318345e+002  2.517114e+001  2.806755e+001 -6.867978e+000  8.803058e+001
5.4606875000e+009 -2.653410e+000 -1.679214e+002 -3.234609e+001  1.295527e+002  2.511297e+001  2.772384e+001 -6.733723e+000  8.724851e+001
5.4608125000e+009 -2.609712e+000 -1.689345e+002 -3.204192e+001  1.281207e+002  2.508139e+001  2.683139e+001 -6.750764e+000  8.574846e+001
5.4609375000e+009 -2.679771e+000 -1.687174e+002 -3.210642e+001  1.261258e+002  2.514156e+001  2.678738e+001 -6.654926e+000  8.572166e+001
5.4610625000e+009 -2.782093e+000 -1.699205e+002 -3.178882e+001  1.269822e+002  2.505913e+001  2.640702e+001 -6.689721e+000  8.544154e+001
5.4611875000e+009 -2.422053e+000 -1.690939e+002 -3.197570e+001  1.244969e+002  2.506821e+001  2.623609e+001 -6.523011e+000  8.606787e+001
5.4613125000e+009 -2.665068e+000 -1.694286e+002 -3.253119e+001  1.316363e+002  2.504284e+001  2.581974e+001 -6.638421e+000  8.432716e+001
5.4614375000e+009 -2.862131e+000 -1.686078e+002 -3.266265e+001  1.297919e+002  2.506035e+001  2.575804e+001 -6.729944e+000  8.377940e+001
5.4615625000e+009 -2.536776e+000 -1.697104e+002 -3.199186e+001  1.264029e+002  2.504109e+001  2.495744e+001 -6.466260e+000  8.376650e+001
5.4616875000e+009 -2.888595e+000 -1.700160e+002 -3.210052e+001  1.245945e+002  2.507959e+001  2.481715e+001 -6.341857e+000  8.308298e+001
5.4618125000e+009 -2.658791e+000 -1.701672e+002 -3.210384e+001  1.258766e+002  2.497851e+001  2.499191e+001 -6.484462e+000  8.420085e+001
5.4619375000e+009 -2.544370e+000 -1.697946e+002 -3.177284e+001  1.242357e+002  2.501304e+001  2.382211e+001 -6.362689e+000  8.200152e+001
5.4620625000e+009 -2.780394e+000 -1.693218e+002 -3.184178e+001  1.253455e+002  2.502575e+001  2.410268e+001 -6.317154e+000  8.313388e+001
5.4621875000e+009 -2.660125e+000 -1.702702e+002 -3.222851e+001  1.248645e+002  2.491313e+001  2.382321e+001 -6.406596e+000  8.172948e+001
5.4623125000e+009 -2.296643e+000 -1.702027e+002 -3.186928e+001  1.249788e+002  2.492925e+001  2.314240e+001 -6.269595e+000  8.196188e+001
5.4624375000e+009 -2.575440e+000 -1.702264e+002 -3.184378e+001  1.265157e+002  2.495663e+001  2.326988e+001 -6.339250e+000  8.184679e+001
5.4625625000e+009 -2.859483e+000 -1.714685e+002 -3.239529e+001  1.250098e+002  2.495191e+001  2.282423e+001 -6.132541e+000  8.123976e+001
5.4626875000e+009 -2.914351e+000 -1.706982e+002 -3.295389e+001  1.261159e+002  2.496601e+001  2.201305e+001 -6.054269e+000  7.839555e+001
5.4628125000e+009 -2.775807e+000 -1.713565e+002 -3.192579e+001  1.216692e+002  2.491405e+001  2.204305e+001 -6.012091e+000  8.014598e+001
5.4629375000e+009 -3.081404e+000 -1.706057e+002 -3.239963e+001  1.227595e+002  2.494052e+001  2.219148e+001 -6.168067e+000  8.052218e+001
5.4630625000e+009 -2.900977e+000 -1.709653e+002 -3.248220e+001  1.250237e+002  2.489943e+001  2.096686e+001 -5.907809e+000  7.769952e+001
5.4631875000e+009 -2.884365e+000 -1.712651e+002 -3.131932e+001  1.185936e+002  2.491821e+001  2.123419e+001 -5.822734e+000  8.077420e+001
5.4633125000e+009 -3.146389e+000 -1.715482e+002 -3.193358e+001  1.186377e+002  2.488731e+001  2.127177e+001 -5.967753e+000  7.953964e+001
5.4634375000e+009 -2.932065e+000 -1.718223e+002 -3.246243e+001  1.168666e+002  2.486876e+001  2.039098e+001 -5.733148e+000  7.811966e+001
5.4635625000e+009 -2.940830e+000 -1.720728e+002 -3.223381e+001  1.222494e+002  2.484649e+001  2.040704e+001 -5.920595e+000  7.776064e+001
5.4636875000e+009 -3.037038e+000 -1.721117e+002 -3.253090e+001  1.230670e+002  2.484546e+001  2.029939e+001 -5.963637e+000  7.836435e+001
5.4638125000e+009 -2.928847e+000 -1.706425e+002 -3.278049e+001  1.205552e+002  2.483453e+001  1.931303e+001 -5.793149e+000  7.688764e+001
5.4639375000e+009 -3.107626e+000 -1.726751e+002 -3.215178e+001  1.211921e+002  2.484475e+001  1.940394e+001 -5.709569e+000  7.767120e+001
5.4640625000e+009 -3.187258e+000 -1.723468e+002 -3.251266e+001  1.254040e+002  2.481346e+001  1.903348e+001 -5.861605e+000  7.732117e+001
5.4641875000e+009 -2.827397e+000 -1.713010e+002 -3.219911e+001  1.178385e+002  2.480919e+001  1.820579e+001 -5.592612e+000  7.685376e+001
5.4643125000e+009 -3.254967e+000 -1.726530e+002 -3.172951e+001  1.193275e+002  2.485467e+001  1.849257e+001 -5.618922e+000  7.696152e+001
5.4644375000e+009 -3.192310e+000 -1.727592e+002 -3.232233e+001  1.192888e+002  2.483395e+001  1.828711e+001 -5.672552e+000  7.719740e+001
5.4645625000e+009 -3.076100e+000 -1.720668e+002 -3.226820e+001  1.223858e+002  2.482773e+001  1.753793e+001 -5.594503e+000  7.635256e+001
5.4646875000e+009 -3.066087e+000 -1.729820e+002 -3.227021e+001  1.170089e+002  2.479868e+001  1.749106e+001 -5.498522e+000  7.636800e+001
5.4648125000e+009 -3.228943e+000 -1.721532e+002 -3.164989e+001  1.187915e+002  2.480227e+001  1.709386e+001 -5.558809e+000  7.649279e+001
5.4649375000e+009 -3.038898e+000 -1.722898e+002 -3.160526e+001  1.138527e+002  2.479701e+001  1.692703e+001 -5.437487e+000  7.632097e+001
5.4650625000e+009 -3.343043e+000 -1.738344e+002 -3.205080e+001  1.165291e+002  2.478937e+001  1.697675e+001 -5.510068e+000  7.565969e+001
5.4651875000e+009 -3.399812e+000 -1.745409e+002 -3.128055e+001  1.202767e+002  2.477486e+001  1.678199e+001 -5.589027e+000  7.711221e+001
5.4653125000e+009 -3.338431e+000 -1.733347e+002 -3.270926e+001  1.137410e+002  2.477158e+001  1.572334e+001 -5.295108e+000  7.466801e+001
5.4654375000e+009 -3.431785e+000 -1.741776e+002 -3.255684e+001  1.201099e+002  2.476353e+001  1.582054e+001 -5.456907e+000  7.462936e+001
5.4655625000e+009 -3.521419e+000 -1.763176e+002 -3.137583e+001  1.161722e+002  2.481743e+001  1.609723e+001 -5.437895e+000  7.644923e+001
5.4656875000e+009 -3.391891e+000 -1.747732e+002 -3.191430e+001  1.186420e+002  2.474816e+001  1.529853e+001 -5.391617e+000  7.469637e+001
5.4658125000e+009 -3.342017e+000 -1.741118e+002 -3.229517e+001  1.168753e+002  2.472830e+001  1.478545e+001 -5.323667e+000  7.393002e+001
5.4659375000e+009 -3.554076e+000 -1.748470e+002 -3.199430e+001  1.144231e+002  2.469511e+001  1.512053e+001 -5.343338e+000  7.357378e+001
5.4660625000e+009 -3.516500e+000 -1.754976e+002 -3.211103e+001  1.162907e+002  2.474139e+001  1.409725e+001 -5.197559e+000  7.390588e+001
5.4661875000e+009 -3.625389e+000 -1.746055e+002 -3.180019e+001  1.119845e+002  2.472671e+001  1.413172e+001 -5.194887e+000  7.337682e+001
5.4663125000e+009 -3.738613e+000 -1.758009e+002 -3.199083e+001  1.126216e+002  2.480429e+001  1.380403e+001 -5.138780e+000  7.404768e+001
5.4664375000e+009 -3.522434e+000 -1.749657e+002 -3.159623e+001  1.137414e+002  2.461013e+001  1.312741e+001 -5.100193e+000  7.260998e+001
5.4665625000e+009 -3.675565e+000 -1.757951e+002 -3.152815e+001  1.143193e+002  2.453833e+001  1.283512e+001 -5.043780e+000  7.194286e+001
5.4666875000e+009 -3.629909e+000 -1.755792e+002 -3.222281e+001  1.156265e+002  2.469833e+001  1.323901e+001 -5.266585e+000  7.290434e+001
5.4668125000e+009 -3.574728e+000 -1.753905e+002 -3.244681e+001  1.158136e+002  2.466521e+001  1.229745e+001 -5.185578e+000  7.187980e+001
5.4669375000e+009 -3.702422e+000 -1.754306e+002 -3.242153e+001  1.109478e+002  2.465113e+001  1.172734e+001 -5.056303e+000  7.157330e+001
5.4670625000e+009 -3.770532e+000 -1.763993e+002 -3.189482e+001  1.154040e+002  2.472387e+001  1.207593e+001 -5.191979e+000  7.272437e+001
5.4671875000e+009 -3.740093e+000 -1.759474e+002 -3.201043e+001  1.151715e+002  2.461531e+001  1.123217e+001 -5.053827e+000  7.164536e+001
5.4673125000e+009 -3.837084e+000 -1.764111e+002 -3.235205e+001  1.138479e+002  2.461451e+001  1.084268e+001 -4.970629e+000  7.077759e+001
5.4674375000e+009 -3.791732e+000 -1.777801e+002 -3.211175e+001  1.164137e+002  2.464893e+001  1.161445e+001 -5.203708e+000  7.140747e+001
5.4675625000e+009 -3.768464e+000 -1.761777e+002 -3.198072e+001  1.136192e+002  2.455381e+001  9.918910e+000 -4.904696e+000  7.059169e+001
5.4676875000e+009 -3.810941e+000 -1.771195e+002 -3.201033e+001  1.135407e+002  2.454514e+001  1.013967e+001 -4.987436e+000  7.022874e+001
5.4678125000e+009 -4.055082e+000 -1.782254e+002 -3.261999e+001  1.086773e+002  2.465950e+001  1.106027e+001 -5.091462e+000  7.002902e+001
5.4679375000e+009 -3.765418e+000 -1.772475e+002 -3.198418e+001  1.151983e+002  2.449215e+001  8.960041e+000 -4.878851e+000  6.985915e+001
5.4680625000e+009 -4.010535e+000 -1.783715e+002 -3.206015e+001  1.091744e+002  2.455817e+001  9.175440e+000 -4.811791e+000  6.962596e+001
5.4681875000e+009 -3.978213e+000 -1.774614e+002 -3.306340e+001  1.129973e+002  2.457010e+001  9.708115e+000 -5.103200e+000  6.871964e+001
5.4683125000e+009 -4.033166e+000 -1.780211e+002 -3.221234e+001  1.131932e+002  2.458179e+001  8.849897e+000 -4.965999e+000  6.931492e+001
5.4684375000e+009 -3.950994e+000 -1.779999e+002 -3.230037e+001  1.100956e+002  2.445333e+001  8.361054e+000 -4.846837e+000  6.810593e+001
5.4685625000e+009 -4.142445e+000 -1.791000e+002 -3.190456e+001  1.083021e+002  2.459071e+001  8.410235e+000 -4.828784e+000  6.920301e+001
5.4686875000e+009 -3.915357e+000 -1.772753e+002 -3.187935e+001  1.089368e+002  2.447593e+001  6.846660e+000 -4.635519e+000  6.847824e+001
5.4688125000e+009 -4.099058e+000 -1.787949e+002 -3.176863e+001  1.082993e+002  2.449823e+001  7.057470e+000 -4.712450e+000  6.835781e+001
5.4689375000e+009 -4.120458e+000 -1.782834e+002 -3.222349e+001  1.099073e+002  2.449887e+001  7.910295e+000 -4.946579e+000  6.767766e+001
5.4690625000e+009 -4.137335e+000 -1.786954e+002 -3.189069e+001  1.097263e+002  2.442249e+001  6.871838e+000 -4.738784e+000  6.753598e+001
5.4691875000e+009 -4.114256e+000 -1.782274e+002 -3.213406e+001  1.099511e+002  2.450101e+001  6.164670e+000 -4.726221e+000  6.747013e+001
5.4693125000e+009 -4.139549e+000 -1.790070e+002 -3.245092e+001  1.067208e+002  2.443560e+001  7.141258e+000 -4.876997e+000  6.638866e+001
5.4694375000e+009 -4.162128e+000 -1.787339e+002 -3.276982e+001  1.067555e+002  2.442912e+001  5.943176e+000 -4.739454e+000  6.598264e+001
5.4695625000e+009 -4.222341e+000 -1.791588e+002 -3.211307e+001  1.090170e+002  2.445508e+001  6.067221e+000 -4.826418e+000  6.675613e+001
5.4696875000e+009 -4.149248e+000 -1.793658e+002 -3.237163e+001  1.126252e+002  2.439762e+001  6.027291e+000 -4.970747e+000  6.597137e+001
5.4698125000e+009 -4.202022e+000 -1.788486e+002 -3.181145e+001  1.109472e+002  2.430681e+001  5.367633e+000 -4.831882e+000  6.596862e+001
5.4699375000e+009 -4.319925e+000 -1.789922e+002 -3.222745e+001  1.048723e+002  2.437877e+001  4.882258e+000 -4.684209e+000  6.525497e+001
5.4700625000e+009 -4.346112e+000  1.798519e+002 -3.158189e+001  1.059501e+002  2.435436e+001  5.278061e+000 -4.759473e+000  6.555440e+001
5.4701875000e+009 -4.322192e+000 -1.791410e+002 -3.183025e+001  1.064233e+002  2.432303e+001  3.724995e+000 -4.638540e+000  6.513814e+001
5.4703125000e+009 -4.361162e+000  1.798302e+002 -3.226139e+001  1.081969e+002  2.435408e+001  3.523171e+000 -4.707421e+000  6.486724e+001
5.4704375000e+009 -4.298845e+000 -1.799961e+002 -3.211174e+001  1.099552e+002  2.427555e+001  3.722483e+000 -4.810180e+000  6.450484e+001
5.4705625000e+009 -4.424770e+000 -1.797528e+002 -3.126044e+001  9.820087e+001  2.425021e+001  3.029706e+000 -4.396447e+000  6.390333e+001
5.4706875000e+009 -4.362616e+000 -1.795818e+002 -3.216303e+001  1.046844e+002  2.426740e+001  2.378830e+000 -4.618892e+000  6.388371e+001
5.4708125000e+009 -4.366023e+000 -1.799356e+002 -3.323215e+001  1.033524e+002  2.412864e+001  3.952787e+000 -4.887666e+000  6.133025e+001
5.4709375000e+009 -4.378291e+000  1.799169e+002 -3.175340e+001  1.047696e+002  2.424958e+001  1.122590e+000 -4.495339e+000  6.380053e+001
5.4710625000e+009 -4.432538e+000  1.798867e+002 -3.185939e+001  1.056051e+002  2.418328e+001  1.396507e+000 -4.627090e+000  6.313038e+001
5.4711875000e+009 -4.519251e+000  1.790741e+002 -3.134819e+001  1.057894e+002  2.412502e+001  2.264610e+000 -4.692011e+000  6.286770e+001
5.4713125000e+009 -4.449123e+000  1.793453e+002 -3.174651e+001  1.045296e+002  2.413764e+001  3.111941e-001 -4.509524e+000  6.230231e+001
5.4714375000e+009 -4.382701e+000  1.792478e+002 -3.222190e+001  1.073091e+002  2.412963e+001  8.347051e-001 -4.742637e+000  6.212734e+001
5.4715625000e+009 -4.491822e+000  1.795017e+002 -3.228467e+001  1.000295e+002  2.411372e+001  7.605835e-001 -4.587949e+000  6.110324e+001
5.4716875000e+009 -4.474529e+000  1.792428e+002 -3.244542e+001  1.054845e+002  2.417491e+001 -3.424739e-001 -4.661469e+000  6.148150e+001
5.4718125000e+009 -4.531678e+000  1.788100e+002 -3.221366e+001  1.018327e+002  2.409383e+001 -8.100032e-001 -4.545395e+000  6.089341e+001
5.4719375000e+009 -4.562465e+000  1.785685e+002 -3.184350e+001  1.023829e+002  2.402611e+001  3.902017e-001 -4.686172e+000  6.049521e+001
5.4720625000e+009 -4.564460e+000  1.791861e+002 -3.174460e+001  9.738244e+001  2.414153e+001 -1.519852e+000 -4.437896e+000  6.046654e+001
5.4721875000e+009 -4.606980e+000  1.780677e+002 -3.156977e+001  1.035540e+002  2.410200e+001 -1.538930e+000 -4.555300e+000  6.104847e+001
5.4723125000e+009 -4.631047e+000  1.783438e+002 -3.167892e+001  9.961478e+001  2.406017e+001 -1.513344e+000 -4.542344e+000  6.001838e+001
5.4724375000e+009 -4.597229e+000  1.779709e+002 -3.192207e+001  1.015132e+002  2.402830e+001 -2.162644e+000 -4.577724e+000  5.974644e+001
5.4725625000e+009 -4.632383e+000  1.785304e+002 -3.233043e+001  9.983123e+001  2.393815e+001 -2.446260e+000 -4.617869e+000  5.844613e+001
5.4726875000e+009 -4.626055e+000  1.787251e+002 -3.238464e+001  9.486076e+001  2.394281e+001 -2.121619e+000 -4.621084e+000  5.762557e+001
5.4728125000e+009 -4.675562e+000  1.784004e+002 -3.192113e+001  9.606136e+001  2.390927e+001 -3.252692e+000 -4.509250e+000  5.783248e+001
5.4729375000e+009 -4.632978e+000  1.783833e+002 -3.201873e+001  9.976246e+001  2.398853e+001 -3.697647e+000 -4.627265e+000  5.853997e+001
5.4730625000e+009 -4.762156e+000  1.782051e+002 -3.214764e+001  9.507962e+001  2.383349e+001 -3.164178e+000 -4.635961e+000  5.666974e+001
5.4731875000e+009 -4.603493e+000  1.776791e+002 -3.226108e+001  9.586685e+001  2.386422e+001 -4.300267e+000 -4.613650e+000  5.675941e+001
5.4733125000e+009 -4.690998e+000  1.782045e+002 -3.169924e+001  9.023842e+001  2.380595e+001 -3.861209e+000 -4.514952e+000  5.606556e+001
5.4734375000e+009 -4.802234e+000  1.773189e+002 -3.171562e+001  9.786117e+001  2.379951e+001 -4.582402e+000 -4.636000e+000  5.682392e+001
5.4735625000e+009 -4.713504e+000  1.775784e+002 -3.221710e+001  9.541248e+001  2.379408e+001 -5.429585e+000 -4.595647e+000  5.585693e+001
5.4736875000e+009 -4.635811e+000  1.767879e+002 -3.209247e+001  9.888849e+001  2.372678e+001 -5.666918e+000 -4.678818e+000  5.571582e+001
5.4738125000e+009 -4.758776e+000  1.782796e+002 -3.214089e+001  9.575549e+001  2.377403e+001 -5.906444e+000 -4.719647e+000  5.540620e+001
5.4739375000e+009 -4.593800e+000  1.776456e+002 -3.309426e+001  9.813937e+001  2.376542e+001 -6.533545e+000 -4.858563e+000  5.453862e+001
5.4740625000e+009 -4.726707e+000  1.769665e+002 -3.204032e+001  9.545512e+001  2.364823e+001 -6.787556e+000 -4.689129e+000  5.419084e+001
5.4741875000e+009 -4.785328e+000  1.771525e+002 -3.196952e+001  9.055103e+001  2.361477e+001 -6.572856e+000 -4.665070e+000  5.326737e+001
5.4743125000e+009 -4.651610e+000  1.775318e+002 -3.191434e+001  9.183560e+001  2.360442e+001 -7.769409e+000 -4.640031e+000  5.345590e+001
5.4744375000e+009 -4.702106e+000  1.765937e+002 -3.199642e+001  9.403194e+001  2.363220e+001 -7.949842e+000 -4.725810e+000  5.344028e+001
5.4745625000e+009 -4.830537e+000  1.776514e+002 -3.243894e+001  9.181839e+001  2.351736e+001 -7.691412e+000 -4.850885e+000  5.175984e+001
5.4746875000e+009 -4.806710e+000  1.768012e+002 -3.155559e+001  9.383645e+001  2.356380e+001 -8.359252e+000 -4.771641e+000  5.290281e+001
5.4748125000e+009 -4.903502e+000  1.771302e+002 -3.279125e+001  9.092652e+001  2.355199e+001 -9.141376e+000 -4.858390e+000  5.137445e+001
5.4749375000e+009 -4.871992e+000  1.769053e+002 -3.194930e+001  9.220618e+001  2.345386e+001 -8.497892e+000 -4.877380e+000  5.142589e+001
5.4750625000e+009 -4.886085e+000  1.767619e+002 -3.196679e+001  8.880899e+001  2.348143e+001 -9.349207e+000 -4.798395e+000  5.097147e+001
5.4751875000e+009 -4.903184e+000  1.758188e+002 -3.130767e+001  9.168769e+001  2.353319e+001 -9.881876e+000 -4.788854e+000  5.186471e+001
5.4753125000e+009 -4.909386e+000  1.768220e+002 -3.256887e+001  9.071464e+001  2.345412e+001 -1.003557e+001 -5.037958e+000  5.048729e+001
5.4754375000e+009 -4.867775e+000  1.765764e+002 -3.317278e+001  8.822254e+001  2.338204e+001 -1.072514e+001 -5.035822e+000  4.901508e+001
5.4755625000e+009 -4.938024e+000  1.756500e+002 -3.281365e+001  8.847340e+001  2.345329e+001 -1.125906e+001 -5.029944e+000  4.938730e+001
5.4756875000e+009 -4.920524e+000  1.747668e+002 -3.274014e+001  8.397873e+001  2.326805e+001 -1.126390e+001 -5.031752e+000  4.809676e+001
5.4758125000e+009 -5.154823e+000  1.756144e+002 -3.169485e+001  9.149388e+001  2.332396e+001 -1.150018e+001 -5.095567e+000  4.940689e+001
5.4759375000e+009 -5.032863e+000  1.747951e+002 -3.185963e+001  8.569041e+001  2.331112e+001 -1.227213e+001 -5.032411e+000  4.870670e+001
5.4760625000e+009 -5.177689e+000  1.745394e+002 -3.204468e+001  8.185901e+001  2.314273e+001 -1.168326e+001 -5.113310e+000  4.637714e+001
5.4761875000e+009 -5.017229e+000  1.739681e+002 -3.212189e+001  8.923956e+001  2.317149e+001 -1.249254e+001 -5.292556e+000  4.783165e+001
5.4763125000e+009 -5.049697e+000  1.742722e+002 -3.232121e+001  8.690796e+001  2.314450e+001 -1.298274e+001 -5.372187e+000  4.674495e+001
5.4764375000e+009 -5.464457e+000  1.737360e+002 -3.237387e+001  8.556516e+001  2.309001e+001 -1.309083e+001 -5.339176e+000  4.549395e+001
5.4765625000e+009 -4.978732e+000  1.731548e+002 -3.238649e+001  8.627222e+001  2.299413e+001 -1.348305e+001 -5.454833e+000  4.529988e+001
5.4766875000e+009 -4.947114e+000  1.718068e+002 -3.316161e+001  8.746684e+001  2.292364e+001 -1.369376e+001 -5.690758e+000  4.486221e+001
5.4768125000e+009 -5.358778e+000  1.724850e+002 -3.350334e+001  8.167117e+001  2.299220e+001 -1.420231e+001 -5.592196e+000  4.330935e+001
5.4769375000e+009 -5.165180e+000  1.719563e+002 -3.215541e+001  7.967686e+001  2.288043e+001 -1.460339e+001 -5.487455e+000  4.322608e+001
5.4770625000e+009 -5.207441e+000  1.726606e+002 -3.277184e+001  8.255478e+001  2.285301e+001 -1.494683e+001 -5.704037e+000  4.291998e+001
5.4771875000e+009 -5.432848e+000  1.710935e+002 -3.296383e+001  8.443726e+001  2.282508e+001 -1.528147e+001 -5.819013e+000  4.260855e+001
5.4773125000e+009 -5.296413e+000  1.712561e+002 -3.271828e+001  8.149208e+001  2.277296e+001 -1.576094e+001 -5.904224e+000  4.176714e+001
5.4774375000e+009 -5.188133e+000  1.712357e+002 -3.231894e+001  8.044075e+001  2.272719e+001 -1.603999e+001 -5.868910e+000  4.195570e+001
5.4775625000e+009 -5.362330e+000  1.717833e+002 -3.287781e+001  7.098393e+001  2.268154e+001 -1.661513e+001 -5.812860e+000  3.870030e+001
5.4776875000e+009 -5.567273e+000  1.712447e+002 -3.241920e+001  7.562576e+001  2.264829e+001 -1.709022e+001 -5.918290e+000  3.935571e+001
5.4778125000e+009 -5.467183e+000  1.704283e+002 -3.296815e+001  7.397019e+001  2.263151e+001 -1.718234e+001 -6.141510e+000  3.840438e+001
5.4779375000e+009 -5.830504e+000  1.697074e+002 -3.264579e+001  7.714735e+001  2.261345e+001 -1.766361e+001 -6.160906e+000  3.856741e+001
5.4780625000e+009 -5.395355e+000  1.697885e+002 -3.361651e+001  7.361018e+001  2.248754e+001 -1.788145e+001 -6.417497e+000  3.703671e+001
5.4781875000e+009 -5.320797e+000  1.693479e+002 -3.256343e+001  7.171836e+001  2.245011e+001 -1.828166e+001 -6.336813e+000  3.730393e+001
5.4783125000e+009 -5.666231e+000  1.672442e+002 -3.335199e+001  7.366630e+001  2.243060e+001 -1.851630e+001 -6.580573e+000  3.595680e+001
5.4784375000e+009 -5.630726e+000  1.680585e+002 -3.328466e+001  7.772671e+001  2.236750e+001 -1.905048e+001 -6.755901e+000  3.615064e+001
5.4785625000e+009 -5.303345e+000  1.673142e+002 -3.334693e+001  7.300700e+001  2.226511e+001 -1.951745e+001 -6.732024e+000  3.446508e+001
5.4786875000e+009 -5.848115e+000  1.662720e+002 -3.300609e+001  7.479558e+001  2.227425e+001 -1.986582e+001 -6.816624e+000  3.423675e+001
5.4788125000e+009 -5.708054e+000  1.670143e+002 -3.303083e+001  7.173083e+001  2.222771e+001 -2.022039e+001 -6.816994e+000  3.294264e+001
5.4789375000e+009 -5.416598e+000  1.668287e+002 -3.358813e+001  7.280935e+001  2.209324e+001 -2.067574e+001 -7.170341e+000  3.248698e+001
5.4790625000e+009 -6.099665e+000  1.658274e+002 -3.379604e+001  7.499007e+001  2.212591e+001 -2.133147e+001 -7.353790e+000  3.173966e+001
5.4791875000e+009 -5.872397e+000  1.657944e+002 -3.381251e+001  6.669106e+001  2.206301e+001 -2.145631e+001 -7.258034e+000  3.015910e+001
5.4793125000e+009 -5.541539e+000  1.660938e+002 -3.418802e+001  6.520953e+001  2.193700e+001 -2.202024e+001 -7.531252e+000  2.907121e+001
5.4794375000e+009 -6.099145e+000  1.634511e+002 -3.311451e+001  6.709918e+001  2.192231e+001 -2.240116e+001 -7.344911e+000  2.828525e+001
5.4795625000e+009 -5.908477e+000  1.653022e+002 -3.325494e+001  7.216575e+001  2.185356e+001 -2.263204e+001 -7.589052e+000  2.910114e+001
5.4796875000e+009 -5.478847e+000  1.648827e+002 -3.406173e+001  6.150882e+001  2.170152e+001 -2.327703e+001 -7.974761e+000  2.562726e+001
5.4798125000e+009 -5.977964e+000  1.633503e+002 -3.411806e+001  6.537695e+001  2.170903e+001 -2.368684e+001 -8.040991e+000  2.555319e+001
5.4799375000e+009 -6.312245e+000  1.631413e+002 -3.436132e+001  6.525363e+001  2.168010e+001 -2.406979e+001 -8.246251e+000  2.502496e+001
5.4800625000e+009 -5.965404e+000  1.638270e+002 -3.412796e+001  6.530837e+001  2.155791e+001 -2.450999e+001 -8.262203e+000  2.428704e+001
5.4801875000e+009 -6.103161e+000  1.623335e+002 -3.443209e+001  6.161664e+001  2.151078e+001 -2.497168e+001 -8.517321e+000  2.210588e+001
5.4803125000e+009 -6.065644e+000  1.626044e+002 -3.382776e+001  6.304165e+001  2.142992e+001 -2.536228e+001 -8.466194e+000  2.215123e+001
5.4804375000e+009 -5.834543e+000  1.620667e+002 -3.502780e+001  6.229155e+001  2.128459e+001 -2.660929e+001 -9.228937e+000  1.928416e+001
5.4805625000e+009 -5.960265e+000  1.596585e+002 -3.487140e+001  6.744079e+001  2.127075e+001 -2.589894e+001 -9.107136e+000  2.029460e+001
5.4806875000e+009 -6.262673e+000  1.586930e+002 -3.478732e+001  6.565907e+001  2.123945e+001 -2.637193e+001 -9.201267e+000  1.911841e+001
5.4808125000e+009 -5.889160e+000  1.626985e+002 -3.479869e+001  5.854133e+001  2.105467e+001 -2.753530e+001 -9.451786e+000  1.653056e+001
5.4809375000e+009 -6.379283e+000  1.602277e+002 -3.496784e+001  6.041302e+001  2.104894e+001 -2.796151e+001 -9.664294e+000  1.543726e+001
5.4810625000e+009 -6.278793e+000  1.601071e+002 -3.554288e+001  5.345436e+001  2.102678e+001 -2.794114e+001 -9.648915e+000  1.356396e+001
5.4811875000e+009 -6.225143e+000  1.604804e+002 -3.593657e+001  5.868365e+001  2.079209e+001 -2.884188e+001 -1.028268e+001  1.303799e+001
5.4813125000e+009 -6.329592e+000  1.578208e+002 -3.549001e+001  5.728405e+001  2.080962e+001 -2.829641e+001 -1.016077e+001  1.217472e+001
5.4814375000e+009 -6.258060e+000  1.572027e+002 -3.618751e+001  5.454412e+001  2.068265e+001 -2.914742e+001 -1.042307e+001  9.779294e+000
5.4815625000e+009 -5.982794e+000  1.603127e+002 -3.639958e+001  5.514524e+001  2.053684e+001 -3.025998e+001 -1.095677e+001  7.231882e+000
5.4816875000e+009 -6.392010e+000  1.585919e+002 -3.556363e+001  5.949721e+001  2.048731e+001 -3.029602e+001 -1.084387e+001  8.448458e+000
5.4818125000e+009 -6.641166e+000  1.541640e+002 -3.550767e+001  5.304543e+001  2.049767e+001 -3.016465e+001 -1.087617e+001  6.200869e+000
5.4819375000e+009 -6.134344e+000  1.574176e+002 -3.609105e+001  5.343543e+001  2.022865e+001 -3.139392e+001 -1.159367e+001  2.504368e+000
5.4820625000e+009 -6.496313e+000  1.549412e+002 -3.585111e+001  5.239218e+001  2.024083e+001 -3.077328e+001 -1.140337e+001  2.769316e+000
5.4821875000e+009 -6.444021e+000  1.543545e+002 -3.613178e+001  5.006321e+001  2.009838e+001 -3.203272e+001 -1.178826e+001 -1.125251e+000
5.4823125000e+009 -6.588195e+000  1.575207e+002 -3.609856e+001  5.425712e+001  1.995110e+001 -3.365177e+001 -1.237777e+001 -3.625654e+000
5.4824375000e+009 -6.794543e+000  1.545710e+002 -3.642261e+001  5.440144e+001  1.986842e+001 -3.334544e+001 -1.256508e+001 -4.609693e+000
5.4825625000e+009 -6.711309e+000  1.514093e+002 -3.678971e+001  4.245813e+001  1.979272e+001 -3.353711e+001 -1.267713e+001 -8.928905e+000
5.4826875000e+009 -6.614222e+000  1.556807e+002 -3.649950e+001  5.024140e+001  1.959696e+001 -3.422715e+001 -1.300550e+001 -9.277380e+000
5.4828125000e+009 -6.843812e+000  1.521740e+002 -3.813855e+001  5.116380e+001  1.952828e+001 -3.435204e+001 -1.357879e+001 -1.157194e+001
5.4829375000e+009 -6.951961e+000  1.511686e+002 -3.845377e+001  4.686415e+001  1.941027e+001 -3.547846e+001 -1.391798e+001 -1.677012e+001
5.4830625000e+009 -6.685688e+000  1.548956e+002 -3.678810e+001  5.117522e+001  1.911433e+001 -3.697804e+001 -1.411054e+001 -1.937373e+001
5.4831875000e+009 -7.225182e+000  1.490177e+002 -3.855157e+001  4.460540e+001  1.913343e+001 -3.678617e+001 -1.460842e+001 -2.472722e+001
5.4833125000e+009 -7.020990e+000  1.510341e+002 -3.846485e+001  3.981439e+001  1.886628e+001 -3.724731e+001 -1.467305e+001 -2.691278e+001
5.4834375000e+009 -6.978367e+000  1.542017e+002 -3.723005e+001  3.923470e+001  1.870695e+001 -3.881023e+001 -1.485906e+001 -3.194426e+001
5.4835625000e+009 -7.115095e+000  1.495381e+002 -3.881149e+001  3.706672e+001  1.855601e+001 -3.807550e+001 -1.532092e+001 -3.530278e+001
5.4836875000e+009 -7.172764e+000  1.497436e+002 -3.760323e+001  4.810652e+001  1.840266e+001 -3.870355e+001 -1.546507e+001 -3.681085e+001
5.4838125000e+009 -7.094359e+000  1.524375e+002 -3.847189e+001  4.284358e+001  1.823830e+001 -3.960735e+001 -1.561489e+001 -4.270296e+001
5.4839375000e+009 -7.344980e+000  1.494928e+002 -3.851380e+001  4.664202e+001  1.805290e+001 -3.995587e+001 -1.610241e+001 -4.696995e+001
5.4840625000e+009 -7.388442e+000  1.477927e+002 -3.929335e+001  4.314443e+001  1.785912e+001 -4.000090e+001 -1.619089e+001 -5.192705e+001
5.4841875000e+009 -7.256487e+000  1.486559e+002 -4.041438e+001  3.704576e+001  1.766112e+001 -4.110822e+001 -1.620651e+001 -5.940574e+001
5.4843125000e+009 -7.268574e+000  1.472362e+002 -3.964832e+001  3.680868e+001  1.738814e+001 -4.144540e+001 -1.606742e+001 -6.233445e+001
5.4844375000e+009 -7.438792e+000  1.466709e+002 -3.983529e+001  3.457118e+001  1.723944e+001 -4.155381e+001 -1.627198e+001 -6.630717e+001
5.4845625000e+009 -7.485321e+000  1.464848e+002 -4.028673e+001  3.449391e+001  1.698084e+001 -4.313129e+001 -1.609340e+001 -7.558609e+001
5.4846875000e+009 -7.614033e+000  1.480464e+002 -4.005607e+001  4.016733e+001  1.678988e+001 -4.350099e+001 -1.604653e+001 -7.758770e+001
5.4848125000e+009 -7.723112e+000  1.473228e+002 -4.092556e+001  3.643965e+001  1.655574e+001 -4.335813e+001 -1.593442e+001 -8.151581e+001
5.4849375000e+009 -7.806447e+000  1.488397e+002 -4.035935e+001  3.738929e+001  1.623839e+001 -4.482446e+001 -1.555766e+001 -8.842579e+001
5.4850625000e+009 -7.919834e+000  1.438419e+002 -4.086295e+001  2.861998e+001  1.600473e+001 -4.417056e+001 -1.540817e+001 -9.221482e+001
5.4851875000e+009 -8.098020e+000  1.461914e+002 -4.155588e+001  3.357368e+001  1.568350e+001 -4.556059e+001 -1.532160e+001 -9.765120e+001
5.4853125000e+009 -8.034857e+000  1.428657e+002 -4.141215e+001  3.541858e+001  1.546052e+001 -4.627662e+001 -1.465973e+001 -1.037967e+002
5.4854375000e+009 -8.046216e+000  1.424059e+002 -4.151233e+001  2.610915e+001  1.504740e+001 -4.614767e+001 -1.452822e+001 -1.068494e+002
5.4855625000e+009 -8.179137e+000  1.424448e+002 -4.231202e+001  2.813090e+001  1.463272e+001 -4.539777e+001 -1.436414e+001 -1.088475e+002
5.4856875000e+009 -8.426914e+000  1.454589e+002 -4.312228e+001  3.411928e+001  1.430886e+001 -4.773841e+001 -1.400355e+001 -1.157354e+002
5.4858125000e+009 -8.476590e+000  1.431309e+002 -4.275399e+001  4.124932e+001  1.395321e+001 -4.780814e+001 -1.367134e+001 -1.183488e+002
5.4859375000e+009 -8.579284e+000  1.424678e+002 -4.274642e+001  4.099554e+001  1.361846e+001 -4.702303e+001 -1.339176e+001 -1.188211e+002
5.4860625000e+009 -8.772800e+000  1.443027e+002 -4.621369e+001  4.357359e+001  1.304887e+001 -4.864911e+001 -1.302959e+001 -1.259254e+002
5.4861875000e+009 -8.802457e+000  1.427039e+002 -4.495565e+001  3.561660e+001  1.258557e+001 -4.871323e+001 -1.263299e+001 -1.270483e+002
5.4863125000e+009 -8.655893e+000  1.389424e+002 -4.518176e+001  3.008518e+001  1.205639e+001 -4.746510e+001 -1.221759e+001 -1.280525e+002
5.4864375000e+009 -9.001645e+000  1.418655e+002 -4.402234e+001  2.725102e+001  1.155578e+001 -4.895709e+001 -1.188247e+001 -1.332237e+002
5.4865625000e+009 -9.094687e+000  1.420092e+002 -4.845554e+001  2.635499e+001  1.096046e+001 -4.785765e+001 -1.135785e+001 -1.357944e+002
5.4866875000e+009 -8.920442e+000  1.413016e+002 -4.534178e+001  4.179242e+001  1.028141e+001 -4.693897e+001 -1.138923e+001 -1.349629e+002
5.4868125000e+009 -9.132151e+000  1.399515e+002 -5.027213e+001  1.666233e+001  9.708910e+000 -4.778736e+001 -1.062062e+001 -1.430260e+002
5.4869375000e+009 -9.355764e+000  1.412581e+002 -4.816164e+001  3.584877e+001  8.757062e+000 -4.685324e+001 -1.065090e+001 -1.431859e+002
5.4870625000e+009 -9.586072e+000  1.400056e+002 -4.704234e+001  3.222812e+001  8.210360e+000 -4.538915e+001 -1.015924e+001 -1.449810e+002
5.4871875000e+009 -9.558907e+000  1.406058e+002 -5.102872e+001  2.197037e+001  7.065693e+000 -4.281414e+001 -9.908219e+000 -1.461051e+002
5.4873125000e+009 -9.357773e+000  1.395688e+002 -5.290368e+001  9.646810e+000  6.276653e+000 -4.091142e+001 -9.685113e+000 -1.492216e+002
5.4874375000e+009 -9.749985e+000  1.392039e+002 -5.342437e+001  3.032661e+001  5.116924e+000 -3.744559e+001 -9.558572e+000 -1.498339e+002
5.4875625000e+009 -9.834814e+000  1.411864e+002 -4.919790e+001  2.804523e+001  3.811382e+000 -3.373559e+001 -9.224561e+000 -1.535514e+002
5.4876875000e+009 -9.891061e+000  1.383590e+002 -5.799425e+001  4.115714e+001  2.638067e+000 -2.576700e+001 -9.018608e+000 -1.540303e+002
5.4878125000e+009 -1.012334e+001  1.402634e+002 -5.505765e+001  8.382471e+001  1.644876e+000 -1.876153e+001 -8.564804e+000 -1.552710e+002
5.4879375000e+009 -1.027368e+001  1.405870e+002 -5.629925e+001 -2.144735e+001  4.845692e-001 -6.134596e+000 -8.464314e+000 -1.557327e+002
5.4880625000e+009 -1.001453e+001  1.394162e+002 -5.546646e+001  2.352868e+001 -1.024103e-001  8.672296e+000 -8.349483e+000 -1.587611e+002
5.4881875000e+009 -1.038479e+001  1.387888e+002 -6.217358e+001  1.266178e+002  3.090248e-002  2.456853e+001 -8.236038e+000 -1.586714e+002
5.4883125000e+009 -1.031412e+001  1.400527e+002 -6.616697e+001 -1.725925e+002  1.131634e+000  3.761223e+001 -7.609118e+000 -1.628849e+002
5.4884375000e+009 -1.047196e+001  1.410970e+002 -5.863117e+001  4.067335e+001  2.189774e+000  4.788624e+001 -7.588772e+000 -1.646894e+002
5.4885625000e+009 -1.030454e+001  1.391868e+002 -6.539411e+001  1.400731e+002  3.255916e+000  5.547256e+001 -7.468068e+000 -1.636848e+002
5.4886875000e+009 -1.074001e+001  1.415304e+002 -6.601172e+001 -1.458592e+002  4.379626e+000  6.022448e+001 -7.214174e+000 -1.653423e+002
5.4888125000e+009 -1.060691e+001  1.411600e+002 -5.532740e+001  1.793725e+002  5.753642e+000  6.550552e+001 -7.068337e+000 -1.674703e+002
5.4889375000e+009 -1.056473e+001  1.412054e+002 -5.247409e+001 -1.512927e+002  6.577404e+000  6.734969e+001 -7.068645e+000 -1.678052e+002
5.4890625000e+009 -1.076366e+001  1.430490e+002 -4.822118e+001  1.432133e+002  7.738039e+000  6.967204e+001 -6.539610e+000 -1.704317e+002
5.4891875000e+009 -1.070160e+001  1.412889e+002 -5.062908e+001  1.364567e+002  8.356840e+000  7.198434e+001 -6.771688e+000 -1.716143e+002
5.4893125000e+009 -1.077021e+001  1.418859e+002 -4.803821e+001  1.487244e+002  9.238723e+000  7.241331e+001 -6.561751e+000 -1.718619e+002
5.4894375000e+009 -1.094661e+001  1.423174e+002 -4.838108e+001  1.454443e+002  1.015012e+001  7.280353e+001 -6.201421e+000 -1.748958e+002
5.4895625000e+009 -1.090010e+001  1.436357e+002 -4.800602e+001  1.596078e+002  1.063348e+001  7.312657e+001 -6.219161e+000 -1.758426e+002
5.4896875000e+009 -1.101317e+001  1.440289e+002 -4.863660e+001  1.749543e+002  1.111712e+001  7.326661e+001 -6.264860e+000 -1.745390e+002
5.4898125000e+009 -1.096833e+001  1.450436e+002 -4.551237e+001  1.731871e+002  1.201705e+001  7.397047e+001 -5.960122e+000 -1.761008e+002
5.4899375000e+009 -1.115983e+001  1.450055e+002 -4.938351e+001  1.751598e+002  1.249196e+001  7.323948e+001 -5.806070e+000 -1.789358e+002
5.4900625000e+009 -1.094047e+001  1.444423e+002 -4.538820e+001  1.576335e+002  1.280566e+001  7.298284e+001 -5.719372e+000  1.795464e+002
5.4901875000e+009 -1.099022e+001  1.452226e+002 -4.412413e+001  1.619464e+002  1.334317e+001  7.230328e+001 -5.556431e+000  1.782837e+002
5.4903125000e+009 -1.107599e+001  1.462603e+002 -4.399698e+001  1.596209e+002  1.370623e+001  7.280654e+001 -5.776587e+000  1.776517e+002
5.4904375000e+009 -1.123342e+001  1.451161e+002 -4.573722e+001  1.665430e+002  1.417243e+001  7.224841e+001 -5.475599e+000  1.770258e+002
5.4905625000e+009 -1.101291e+001  1.463624e+002 -4.265737e+001  1.730719e+002  1.462079e+001  7.119573e+001 -5.120076e+000  1.755714e+002
5.4906875000e+009 -1.120144e+001  1.465356e+002 -4.320153e+001  1.476326e+002  1.493157e+001  7.081227e+001 -5.218230e+000  1.737169e+002
5.4908125000e+009 -1.124940e+001  1.472039e+002 -4.244706e+001  1.617892e+002  1.535165e+001  6.999583e+001 -4.984694e+000  1.739900e+002
5.4909375000e+009 -1.123568e+001  1.472706e+002 -4.326495e+001  1.653178e+002  1.569228e+001  6.976123e+001 -4.959379e+000  1.727076e+002
5.4910625000e+009 -1.110479e+001  1.474636e+002 -4.203138e+001  1.517215e+002  1.590575e+001  6.960992e+001 -5.122507e+000  1.716528e+002
5.4911875000e+009 -1.112058e+001  1.472653e+002 -4.112838e+001  1.564539e+002  1.617819e+001  6.834267e+001 -4.898962e+000  1.705252e+002
5.4913125000e+009 -1.114390e+001  1.482590e+002 -4.224828e+001  1.548439e+002  1.646141e+001  6.759721e+001 -4.886189e+000  1.688240e+002
5.4914375000e+009 -1.117345e+001  1.480782e+002 -4.027630e+001  1.500703e+002  1.679683e+001  6.672063e+001 -4.556304e+000  1.684460e+002
5.4915625000e+009 -1.104920e+001  1.487402e+002 -4.163959e+001  1.625004e+002  1.681623e+001  6.710523e+001 -4.997020e+000  1.669087e+002
5.4916875000e+009 -1.115743e+001  1.491012e+002 -4.091191e+001  1.534479e+002  1.720918e+001  6.618878e+001 -4.668214e+000  1.668536e+002
5.4918125000e+009 -1.103544e+001  1.499940e+002 -3.962519e+001  1.567918e+002  1.738973e+001  6.550648e+001 -4.751165e+000  1.655591e+002
5.4919375000e+009 -1.106412e+001  1.493431e+002 -4.027659e+001  1.584593e+002  1.764636e+001  6.504671e+001 -4.797266e+000  1.656078e+002
5.4920625000e+009 -1.110349e+001  1.503319e+002 -4.080706e+001  1.507309e+002  1.788133e+001  6.355271e+001 -4.467270e+000  1.631505e+002
5.4921875000e+009 -1.121566e+001  1.500563e+002 -3.951472e+001  1.533943e+002  1.810940e+001  6.239783e+001 -4.207337e+000  1.629319e+002
5.4923125000e+009 -1.119160e+001  1.497929e+002 -4.060205e+001  1.409447e+002  1.824496e+001  6.235175e+001 -4.384887e+000  1.607607e+002
5.4924375000e+009 -1.113343e+001  1.503406e+002 -3.924734e+001  1.423393e+002  1.842021e+001  6.156321e+001 -4.293773e+000  1.602886e+002
5.4925625000e+009 -1.107548e+001  1.508185e+002 -4.065175e+001  1.549965e+002  1.873707e+001  6.022523e+001 -4.067596e+000  1.605138e+002
5.4926875000e+009 -1.094888e+001  1.510084e+002 -3.924299e+001  1.542682e+002  1.874959e+001  6.056818e+001 -4.395794e+000  1.598429e+002
5.4928125000e+009 -1.104533e+001  1.508432e+002 -3.817701e+001  1.445911e+002  1.894208e+001  5.943268e+001 -4.170126e+000  1.584285e+002
5.4929375000e+009 -1.108248e+001  1.509397e+002 -3.947046e+001  1.406991e+002  1.911774e+001  5.814753e+001 -4.083809e+000  1.566377e+002
5.4930625000e+009 -1.096959e+001  1.503026e+002 -3.842715e+001  1.448316e+002  1.919870e+001  5.734830e+001 -4.010495e+000  1.552247e+002
5.4931875000e+009 -1.087741e+001  1.512968e+002 -3.959795e+001  1.543668e+002  1.933892e+001  5.713339e+001 -4.174352e+000  1.551276e+002
5.4933125000e+009 -1.091853e+001  1.513150e+002 -3.810754e+001  1.461668e+002  1.949130e+001  5.639957e+001 -4.045095e+000  1.543365e+002
5.4934375000e+009 -1.092439e+001  1.507127e+002 -3.915105e+001  1.462690e+002  1.944794e+001  5.646141e+001 -4.344993e+000  1.522790e+002
5.4935625000e+009 -1.080768e+001  1.510323e+002 -3.731258e+001  1.439626e+002  1.969929e+001  5.522276e+001 -3.952957e+000  1.523687e+002
5.4936875000e+009 -1.086881e+001  1.513047e+002 -3.858939e+001  1.412767e+002  1.995969e+001  5.359143e+001 -3.810720e+000  1.514783e+002
5.4938125000e+009 -1.102428e+001  1.515095e+002 -4.027776e+001  1.320923e+002  1.980514e+001  5.405001e+001 -4.307696e+000  1.486040e+002
5.4939375000e+009 -1.094463e+001  1.508122e+002 -3.739856e+001  1.365842e+002  2.004183e+001  5.258347e+001 -3.857398e+000  1.488089e+002
5.4940625000e+009 -1.082098e+001  1.513784e+002 -3.818027e+001  1.443893e+002  2.009431e+001  5.243877e+001 -4.033592e+000  1.484405e+002
5.4941875000e+009 -1.082873e+001  1.505936e+002 -3.749572e+001  1.411241e+002  2.023417e+001  5.182148e+001 -3.933923e+000  1.480067e+002
5.4943125000e+009 -1.072452e+001  1.506255e+002 -3.623885e+001  1.369677e+002  2.029224e+001  5.028896e+001 -3.688265e+000  1.463524e+002
5.4944375000e+009 -1.074519e+001  1.509250e+002 -3.659679e+001  1.360257e+002  2.041675e+001  5.012878e+001 -3.751074e+000  1.456606e+002
5.4945625000e+009 -1.078952e+001  1.506332e+002 -3.703407e+001  1.346210e+002  2.037606e+001  5.081870e+001 -4.126443e+000  1.447446e+002
5.4946875000e+009 -1.077996e+001  1.516401e+002 -3.823514e+001  1.323135e+002  2.064516e+001  4.845891e+001 -3.808745e+000  1.440956e+002
5.4948125000e+009 -1.073385e+001  1.507696e+002 -3.703043e+001  1.347748e+002  2.068633e+001  4.864491e+001 -3.902079e+000  1.438946e+002
5.4949375000e+009 -1.081249e+001  1.507364e+002 -3.713913e+001  1.303404e+002  2.073058e+001  4.787174e+001 -3.902802e+000  1.423065e+002
5.4950625000e+009 -1.079842e+001  1.511595e+002 -3.689997e+001  1.299152e+002  2.082605e+001  4.663932e+001 -3.736999e+000  1.414787e+002
5.4951875000e+009 -1.057431e+001  1.502464e+002 -3.646437e+001  1.326901e+002  2.091642e+001  4.664200e+001 -3.786054e+000  1.412509e+002
5.4953125000e+009 -1.072716e+001  1.495845e+002 -3.639743e+001  1.297790e+002  2.094800e+001  4.610788e+001 -3.866761e+000  1.399937e+002
5.4954375000e+009 -1.059573e+001  1.504836e+002 -3.646975e+001  1.294666e+002  2.105002e+001  4.471839e+001 -3.719338e+000  1.390135e+002
5.4955625000e+009 -1.056367e+001  1.499425e+002 -3.598357e+001  1.373002e+002  2.120357e+001  4.431617e+001 -3.692690e+000  1.396600e+002
5.4956875000e+009 -1.073311e+001  1.500306e+002 -3.670552e+001  1.301537e+002  2.117534e+001  4.405688e+001 -3.829202e+000  1.382174e+002
5.4958125000e+009 -1.061645e+001  1.501577e+002 -3.571157e+001  1.294415e+002  2.119076e+001  4.337257e+001 -3.781504e+000  1.368459e+002
5.4959375000e+009 -1.057026e+001  1.498170e+002 -3.652968e+001  1.297978e+002  2.127114e+001  4.255585e+001 -3.788632e+000  1.360379e+002
5.4960625000e+009 -1.067239e+001  1.499512e+002 -3.721156e+001  1.342197e+002  2.136175e+001  4.226402e+001 -3.960302e+000  1.362430e+002
5.4961875000e+009 -1.057371e+001  1.501636e+002 -3.587105e+001  1.312729e+002  2.131739e+001  4.183303e+001 -3.851989e+000  1.347839e+002
5.4963125000e+009 -1.046537e+001  1.498041e+002 -3.564753e+001  1.278561e+002  2.140969e+001  4.122103e+001 -3.821147e+000  1.337327e+002
5.4964375000e+009 -1.060034e+001  1.492850e+002 -3.613306e+001  1.279028e+002  2.132971e+001  4.096926e+001 -4.012156e+000  1.322055e+002
5.4965625000e+009 -1.052529e+001  1.498693e+002 -3.595385e+001  1.282289e+002  2.147392e+001  4.032382e+001 -3.933068e+000  1.324156e+002
5.4966875000e+009 -1.058007e+001  1.497259e+002 -3.677703e+001  1.265658e+002  2.152188e+001  3.941610e+001 -4.000059e+000  1.308980e+002
5.4968125000e+009 -1.065639e+001  1.495052e+002 -3.710388e+001  1.251316e+002  2.149766e+001  3.924824e+001 -4.150380e+000  1.299350e+002
5.4969375000e+009 -1.070660e+001  1.484482e+002 -3.607195e+001  1.176502e+002  2.161074e+001  3.871366e+001 -4.030606e+000  1.289356e+002
5.4970625000e+009 -1.057009e+001  1.497213e+002 -3.587494e+001  1.272896e+002  2.169864e+001  3.775082e+001 -3.937353e+000  1.296376e+002
5.4971875000e+009 -1.070747e+001  1.471612e+002 -3.629119e+001  1.230021e+002  2.166723e+001  3.726418e+001 -4.017909e+000  1.274476e+002
5.4973125000e+009 -1.033793e+001  1.494530e+002 -3.554027e+001  1.228329e+002  2.170361e+001  3.693056e+001 -3.962905e+000  1.273188e+002
5.4974375000e+009 -1.036349e+001  1.475712e+002 -3.527123e+001  1.240371e+002  2.186964e+001  3.637875e+001 -3.845372e+000  1.277059e+002
5.4975625000e+009 -1.067025e+001  1.455805e+002 -3.552597e+001  1.171118e+002  2.182063e+001  3.606752e+001 -4.009082e+000  1.252362e+002
5.4976875000e+009 -1.037665e+001  1.496866e+002 -3.514377e+001  1.189925e+002  2.180028e+001  3.525754e+001 -3.941916e+000  1.246622e+002
5.4978125000e+009 -1.065990e+001  1.475693e+002 -3.562137e+001  1.165815e+002  2.189564e+001  3.468980e+001 -4.007576e+000  1.238740e+002
5.4979375000e+009 -1.064337e+001  1.453110e+002 -3.483455e+001  1.210948e+002  2.195899e+001  3.440755e+001 -3.996291e+000  1.239436e+002
5.4980625000e+009 -1.076599e+001  1.463581e+002 -3.531884e+001  1.124298e+002  2.186891e+001  3.360389e+001 -3.987830e+000  1.215800e+002
5.4981875000e+009 -1.053159e+001  1.468689e+002 -3.497781e+001  1.171322e+002  2.196892e+001  3.334856e+001 -3.966957e+000  1.221046e+002
5.4983125000e+009 -1.088234e+001  1.436890e+002 -3.481992e+001  1.144176e+002  2.199904e+001  3.301662e+001 -4.088732e+000  1.203763e+002
5.4984375000e+009 -1.055532e+001  1.467558e+002 -3.564664e+001  1.183800e+002  2.199170e+001  3.222054e+001 -4.122114e+000  1.206044e+002
5.4985625000e+009 -1.052047e+001  1.459571e+002 -3.518663e+001  1.153403e+002  2.211177e+001  3.210989e+001 -4.090719e+000  1.203035e+002
5.4986875000e+009 -1.046673e+001  1.435123e+002 -3.489581e+001  1.233953e+002  2.203254e+001  3.174750e+001 -4.116402e+000  1.199559e+002
5.4988125000e+009 -1.058716e+001  1.447621e+002 -3.614217e+001  1.165343e+002  2.210596e+001  3.101555e+001 -4.260500e+000  1.185358e+002
5.4989375000e+009 -1.062008e+001  1.439412e+002 -3.503606e+001  1.186252e+002  2.218428e+001  3.073284e+001 -4.206054e+000  1.185520e+002
5.4990625000e+009 -1.081999e+001  1.419790e+002 -3.499645e+001  1.089507e+002  2.223765e+001  3.000891e+001 -4.156236e+000  1.162113e+002
5.4991875000e+009 -1.061318e+001  1.454270e+002 -3.575719e+001  1.113775e+002  2.211570e+001  2.976031e+001 -4.351129e+000  1.152686e+002
5.4993125000e+009 -1.061753e+001  1.455673e+002 -3.556430e+001  1.095929e+002  2.221782e+001  2.893835e+001 -4.257652e+000  1.148413e+002
5.4994375000e+009 -1.070322e+001  1.421382e+002 -3.522682e+001  1.098661e+002  2.226482e+001  2.907733e+001 -4.362494e+000  1.145274e+002
5.4995625000e+009 -1.064849e+001  1.454014e+002 -3.505879e+001  1.089066e+002  2.221013e+001  2.829649e+001 -4.283019e+000  1.136152e+002
5.4996875000e+009 -1.070677e+001  1.446348e+002 -3.480884e+001  1.045569e+002  2.228570e+001  2.778555e+001 -4.332352e+000  1.127068e+002
5.4998125000e+009 -1.081266e+001  1.424999e+002 -3.517730e+001  1.089926e+002  2.230025e+001  2.744600e+001 -4.355052e+000  1.125810e+002
5.4999375000e+009 -1.080342e+001  1.448900e+002 -3.477934e+001  1.069000e+002  2.230432e+001  2.679598e+001 -4.348884e+000  1.115691e+002
5.5000625000e+009 -1.065492e+001  1.420009e+002 -3.495583e+001  1.090135e+002  2.239345e+001  2.668226e+001 -4.362896e+000  1.116673e+002
5.5001875000e+009 -1.089391e+001  1.387945e+002 -3.490998e+001  1.076081e+002  2.240760e+001  2.637137e+001 -4.398571e+000  1.107148e+002
5.5003125000e+009 -1.071604e+001  1.416131e+002 -3.437540e+001  1.093182e+002  2.239938e+001  2.582435e+001 -4.359579e+000  1.102839e+002
5.5004375000e+009 -1.062684e+001  1.415522e+002 -3.473409e+001  1.063498e+002  2.243149e+001  2.561243e+001 -4.459499e+000  1.093072e+002
5.5005625000e+009 -1.079170e+001  1.411015e+002 -3.543931e+001  1.069532e+002  2.242593e+001  2.489574e+001 -4.547626e+000  1.084110e+002
5.5006875000e+009 -1.056967e+001  1.429380e+002 -3.559035e+001  9.882401e+001  2.240820e+001  2.473934e+001 -4.624733e+000  1.063580e+002
5.5008125000e+009 -1.092611e+001  1.423905e+002 -3.570627e+001  1.037014e+002  2.250284e+001  2.433318e+001 -4.671638e+000  1.073427e+002
5.5009375000e+009 -1.052210e+001  1.401333e+002 -3.548513e+001  1.073656e+002  2.248828e+001  2.429718e+001 -4.593030e+000  1.067188e+002
5.5010625000e+009 -1.077576e+001  1.403403e+002 -3.489237e+001  1.003550e+002  2.246687e+001  2.350900e+001 -4.615386e+000  1.052164e+002
5.5011875000e+009 -1.072868e+001  1.416934e+002 -3.460314e+001  9.819731e+001  2.249482e+001  2.315144e+001 -4.644024e+000  1.040594e+002
5.5013125000e+009 -1.093990e+001  1.374817e+002 -3.502148e+001  1.074603e+002  2.255804e+001  2.279096e+001 -4.656739e+000  1.052015e+002
5.5014375000e+009 -1.081129e+001  1.410482e+002 -3.507471e+001  1.030597e+002  2.252164e+001  2.226868e+001 -4.707112e+000  1.037160e+002
5.5015625000e+009 -1.084443e+001  1.437331e+002 -3.545104e+001  1.023045e+002  2.250518e+001  2.170845e+001 -4.898277e+000  1.032080e+002
5.5016875000e+009 -1.075105e+001  1.384026e+002 -3.466169e+001  1.057079e+002  2.253522e+001  2.162137e+001 -4.671602e+000  1.027980e+002
5.5018125000e+009 -1.067632e+001  1.380100e+002 -3.450167e+001  1.029472e+002  2.253240e+001  2.096169e+001 -4.734767e+000  1.014209e+002
5.5019375000e+009 -1.064414e+001  1.388501e+002 -3.579946e+001  1.055907e+002  2.259354e+001  2.093645e+001 -4.942271e+000  1.017572e+002
5.5020625000e+009 -1.069469e+001  1.378350e+002 -3.455280e+001  1.010148e+002  2.264195e+001  2.103801e+001 -4.721745e+000  1.005050e+002
5.5021875000e+009 -1.098185e+001  1.368468e+002 -3.460479e+001  9.973687e+001  2.263943e+001  2.005938e+001 -4.830141e+000  9.919411e+001
5.5023125000e+009 -1.100411e+001  1.430662e+002 -3.549966e+001  9.613627e+001  2.258311e+001  1.952011e+001 -4.994727e+000  9.833884e+001
5.5024375000e+009 -1.056184e+001  1.393562e+002 -3.510424e+001  1.039235e+002  2.256809e+001  1.958427e+001 -4.994785e+000  9.956747e+001
5.5025625000e+009 -1.077935e+001  1.400280e+002 -3.499842e+001  9.673055e+001  2.264579e+001  1.953309e+001 -4.839273e+000  9.695325e+001
5.5026875000e+009 -1.088295e+001  1.399000e+002 -3.457852e+001  1.005974e+002  2.262221e+001  1.869241e+001 -4.905759e+000  9.720673e+001
5.5028125000e+009 -1.079500e+001  1.383119e+002 -3.549654e+001  9.463356e+001  2.267511e+001  1.836380e+001 -5.129548e+000  9.574466e+001
5.5029375000e+009 -1.083993e+001  1.367247e+002 -3.515285e+001  9.735605e+001  2.270235e+001  1.848528e+001 -5.014579e+000  9.550966e+001
5.5030625000e+009 -1.096449e+001  1.387967e+002 -3.508158e+001  9.431026e+001  2.266503e+001  1.713249e+001 -5.165816e+000  9.443948e+001
5.5031875000e+009 -1.086356e+001  1.349633e+002 -3.483799e+001  9.708742e+001  2.277502e+001  1.786360e+001 -5.013061e+000  9.436079e+001
5.5033125000e+009 -1.086075e+001  1.357745e+002 -3.485340e+001  9.744523e+001  2.271834e+001  1.739428e+001 -5.059742e+000  9.416205e+001
5.5034375000e+009 -1.105102e+001  1.393345e+002 -3.508374e+001  9.817432e+001  2.272748e+001  1.622765e+001 -5.152470e+000  9.323481e+001
5.5035625000e+009 -1.091792e+001  1.357357e+002 -3.589654e+001  9.066088e+001  2.275851e+001  1.658006e+001 -5.312028e+000  9.211977e+001
5.5036875000e+009 -1.064807e+001  1.344811e+002 -3.504990e+001  9.764123e+001  2.276275e+001  1.682995e+001 -5.023217e+000  9.245166e+001
5.5038125000e+009 -1.121872e+001  1.371709e+002 -3.420264e+001  9.546608e+001  2.273436e+001  1.485062e+001 -5.178137e+000  9.097810e+001
5.5039375000e+009 -1.100347e+001  1.362112e+002 -3.605638e+001  9.446992e+001  2.272704e+001  1.555083e+001 -5.372836e+000  9.098019e+001
5.5040625000e+009 -1.094668e+001  1.369669e+002 -3.527097e+001  9.114500e+001  2.276364e+001  1.517864e+001 -5.295381e+000  8.956109e+001
5.5041875000e+009 -1.131877e+001  1.380004e+002 -3.506105e+001  9.204797e+001  2.275984e+001  1.420586e+001 -5.260288e+000  8.879684e+001
5.5043125000e+009 -1.100954e+001  1.339017e+002 -3.510202e+001  9.093391e+001  2.286444e+001  1.436293e+001 -5.332908e+000  8.811634e+001
5.5044375000e+009 -1.095372e+001  1.352571e+002 -3.492550e+001  9.221175e+001  2.277661e+001  1.389812e+001 -5.326012e+000  8.770898e+001
5.5045625000e+009 -1.109508e+001  1.359665e+002 -3.484383e+001  9.375734e+001  2.282687e+001  1.303003e+001 -5.339132e+000  8.709133e+001
5.5046875000e+009 -1.084490e+001  1.334530e+002 -3.572509e+001  9.566012e+001  2.280127e+001  1.382213e+001 -5.432408e+000  8.769202e+001
5.5048125000e+009 -1.101244e+001  1.359775e+002 -3.570530e+001  9.122174e+001  2.283269e+001  1.339478e+001 -5.368216e+000  8.610286e+001
5.5049375000e+009 -1.128197e+001  1.367693e+002 -3.513789e+001  9.216228e+001  2.286361e+001  1.244143e+001 -5.442974e+000  8.499336e+001
5.5050625000e+009 -1.094275e+001  1.355822e+002 -3.553799e+001  9.051553e+001  2.282912e+001  1.242089e+001 -5.458797e+000  8.463002e+001
5.5051875000e+009 -1.081590e+001  1.358046e+002 -3.643207e+001  8.600704e+001  2.277607e+001  1.304126e+001 -5.571497e+000  8.430672e+001
5.5053125000e+009 -1.128614e+001  1.350317e+002 -3.519920e+001  8.854641e+001  2.284615e+001  1.233102e+001 -5.412076e+000  8.347799e+001
5.5054375000e+009 -1.107198e+001  1.321382e+002 -3.534577e+001  8.989771e+001  2.283080e+001  1.196510e+001 -5.452643e+000  8.340001e+001
5.5055625000e+009 -1.076132e+001  1.332414e+002 -3.521264e+001  8.425752e+001  2.285458e+001  1.161855e+001 -5.476430e+000  8.185072e+001
5.5056875000e+009 -1.141963e+001  1.348941e+002 -3.582455e+001  8.787125e+001  2.281973e+001  1.012499e+001 -5.682056e+000  8.188403e+001
5.5058125000e+009 -1.073780e+001  1.309024e+002 -3.468715e+001  9.022636e+001  2.289286e+001  1.144822e+001 -5.357727e+000  8.165384e+001
5.5059375000e+009 -1.086314e+001  1.318833e+002 -3.549855e+001  9.039051e+001  2.295700e+001  1.110973e+001 -5.445941e+000  8.098278e+001
5.5060625000e+009 -1.126437e+001  1.346468e+002 -3.571763e+001  8.894197e+001  2.286197e+001  9.735342e+000 -5.608819e+000  8.031110e+001
5.5061875000e+009 -1.100004e+001  1.313719e+002 -3.595713e+001  8.630021e+001  2.296986e+001  9.832016e+000 -5.663414e+000  7.900378e+001
5.5063125000e+009 -1.077618e+001  1.323615e+002 -3.562371e+001  8.902332e+001  2.292851e+001  1.031260e+001 -5.560493e+000  7.952468e+001
5.5064375000e+009 -1.140778e+001  1.332941e+002 -3.568492e+001  8.800386e+001  2.295444e+001  9.097957e+000 -5.596652e+000  7.842444e+001
5.5065625000e+009 -1.117965e+001  1.303462e+002 -3.480632e+001  8.621180e+001  2.299264e+001  9.180071e+000 -5.486977e+000  7.728672e+001
5.5066875000e+009 -1.114330e+001  1.322558e+002 -3.533197e+001  8.570649e+001  2.297364e+001  9.440124e+000 -5.508190e+000  7.697293e+001
5.5068125000e+009 -1.127089e+001  1.309952e+002 -3.565906e+001  8.769561e+001  2.293204e+001  7.666556e+000 -5.713640e+000  7.681936e+001
5.5069375000e+009 -1.105850e+001  1.298988e+002 -3.580094e+001  8.349372e+001  2.294243e+001  8.346321e+000 -5.695323e+000  7.614207e+001
5.5070625000e+009 -1.114693e+001  1.307212e+002 -3.555301e+001  8.360216e+001  2.296546e+001  8.077559e+000 -5.664410e+000  7.513435e+001
5.5071875000e+009 -1.138922e+001  1.320791e+002 -3.575418e+001  8.493669e+001  2.302600e+001  6.915865e+000 -5.734201e+000  7.467113e+001
5.5073125000e+009 -1.103800e+001  1.303586e+002 -3.536428e+001  8.670736e+001  2.289781e+001  7.550628e+000 -5.653192e+000  7.505120e+001
5.5074375000e+009 -1.093431e+001  1.296906e+002 -3.550020e+001  8.498875e+001  2.299630e+001  7.238789e+000 -5.638216e+000  7.375115e+001
5.5075625000e+009 -1.117370e+001  1.291504e+002 -3.563741e+001  8.701035e+001  2.303197e+001  6.913109e+000 -5.663434e+000  7.366385e+001
5.5076875000e+009 -1.107853e+001  1.300878e+002 -3.566201e+001  8.101295e+001  2.297207e+001  6.343762e+000 -5.734053e+000  7.204084e+001
5.5078125000e+009 -1.103099e+001  1.296333e+002 -3.578926e+001  8.208306e+001  2.291182e+001  7.064797e+000 -5.681868e+000  7.240340e+001
5.5079375000e+009 -1.114050e+001  1.290786e+002 -3.529448e+001  8.837807e+001  2.308770e+001  6.135124e+000 -5.601459e+000  7.235334e+001
5.5080625000e+009 -1.119586e+001  1.288091e+002 -3.587772e+001  8.123804e+001  2.292712e+001  5.611700e+000 -5.770988e+000  7.103223e+001
5.5081875000e+009 -1.120017e+001  1.289502e+002 -3.535171e+001  8.072946e+001  2.309262e+001  5.775505e+000 -5.619596e+000  6.979946e+001
5.5083125000e+009 -1.147061e+001  1.288949e+002 -3.531859e+001  8.168249e+001  2.310834e+001  4.387964e+000 -5.666476e+000  6.912344e+001
5.5084375000e+009 -1.119291e+001  1.282388e+002 -3.550849e+001  8.213657e+001  2.302597e+001  4.775093e+000 -5.675349e+000  6.949042e+001
5.5085625000e+009 -1.120488e+001  1.277633e+002 -3.581315e+001  7.965723e+001  2.308295e+001  3.650561e+000 -5.805337e+000  6.824616e+001
5.5086875000e+009 -1.116489e+001  1.273712e+002 -3.595491e+001  8.191687e+001  2.307119e+001  4.185800e+000 -5.733015e+000  6.859677e+001
5.5088125000e+009 -1.111955e+001  1.279851e+002 -3.546346e+001  7.974639e+001  2.308924e+001  4.449731e+000 -5.698555e+000  6.753830e+001
5.5089375000e+009 -1.141647e+001  1.279861e+002 -3.566293e+001  7.816593e+001  2.301587e+001  3.945692e+000 -5.695706e+000  6.709140e+001
5.5090625000e+009 -1.138900e+001  1.262702e+002 -3.543352e+001  8.404874e+001  2.311081e+001  3.190554e+000 -5.660155e+000  6.721289e+001
5.5091875000e+009 -1.119457e+001  1.258232e+002 -3.563716e+001  7.924529e+001  2.307482e+001  3.298971e+000 -5.723732e+000  6.601643e+001
5.5093125000e+009 -1.125943e+001  1.269916e+002 -3.589913e+001  8.162286e+001  2.294942e+001  3.125769e+000 -5.714630e+000  6.670337e+001
5.5094375000e+009 -1.152451e+001  1.273370e+002 -3.575457e+001  7.617477e+001  2.301011e+001  2.552321e+000 -5.809647e+000  6.476823e+001
5.5095625000e+009 -1.134125e+001  1.258487e+002 -3.596915e+001  7.665428e+001  2.308967e+001  2.426193e+000 -5.775965e+000  6.449181e+001
5.5096875000e+009 -1.125603e+001  1.250406e+002 -3.591621e+001  8.083110e+001  2.314277e+001  2.073498e+000 -5.736475e+000  6.462396e+001
5.5098125000e+009 -1.142458e+001  1.251622e+002 -3.612999e+001  7.628472e+001  2.307158e+001  1.997084e+000 -5.804783e+000  6.382205e+001
5.5099375000e+009 -1.131229e+001  1.241383e+002 -3.615963e+001  7.986095e+001  2.312954e+001  1.606915e+000 -5.762027e+000  6.386703e+001
5.5100625000e+009 -1.115938e+001  1.245917e+002 -3.613004e+001  8.273954e+001  2.304967e+001  1.637938e+000 -5.727421e+000  6.427063e+001
5.5101875000e+009 -1.145356e+001  1.250357e+002 -3.559177e+001  7.958040e+001  2.314353e+001  7.557885e-001 -5.715094e+000  6.238053e+001
5.5103125000e+009 -1.145663e+001  1.242776e+002 -3.596992e+001  7.510857e+001  2.321546e+001  1.892521e-001 -5.769327e+000  6.130281e+001
5.5104375000e+009 -1.128691e+001  1.247073e+002 -3.623060e+001  7.239539e+001  2.320952e+001  9.801902e-001 -5.823957e+000  6.088027e+001
5.5105625000e+009 -1.120565e+001  1.234632e+002 -3.734488e+001  7.976379e+001  2.307751e+001 -1.690487e-002 -5.992354e+000  6.230783e+001
5.5106875000e+009 -1.120925e+001  1.240410e+002 -3.640964e+001  7.466900e+001  2.326968e+001 -2.400572e-001 -5.831396e+000  6.007343e+001
5.5108125000e+009 -1.118363e+001  1.231488e+002 -3.674739e+001  7.837426e+001  2.322522e+001 -4.044822e-001 -5.816504e+000  6.064182e+001
5.5109375000e+009 -1.135722e+001  1.233710e+002 -3.616842e+001  7.892400e+001  2.320588e+001 -2.703209e-001 -5.722972e+000  6.040658e+001
5.5110625000e+009 -1.145053e+001  1.230083e+002 -3.604035e+001  7.648695e+001  2.328993e+001 -9.057781e-001 -5.722411e+000  5.898310e+001
5.5111875000e+009 -1.139787e+001  1.219814e+002 -3.617056e+001  7.786887e+001  2.296294e+001 -1.106399e+000 -5.763419e+000  5.986759e+001
5.5113125000e+009 -1.130872e+001  1.226316e+002 -3.610583e+001  7.592061e+001  2.317697e+001 -8.566729e-001 -5.699070e+000  5.865362e+001
5.5114375000e+009 -1.125659e+001  1.222811e+002 -3.613635e+001  7.645035e+001  2.328508e+001 -1.823788e+000 -5.720868e+000  5.774116e+001
5.5115625000e+009 -1.144659e+001  1.220430e+002 -3.602200e+001  7.628094e+001  2.312436e+001 -1.866742e+000 -5.693229e+000  5.761877e+001
5.5116875000e+009 -1.146924e+001  1.213913e+002 -3.574614e+001  7.788722e+001  2.325044e+001 -2.285015e+000 -5.637625e+000  5.728368e+001
5.5118125000e+009 -1.136563e+001  1.213705e+002 -3.619945e+001  7.659123e+001  2.315782e+001 -2.638798e+000 -5.722982e+000  5.736774e+001
5.5119375000e+009 -1.138970e+001  1.215848e+002 -3.564522e+001  7.086287e+001  2.305061e+001 -2.588249e+000 -5.716637e+000  5.592994e+001
5.5120625000e+009 -1.136691e+001  1.212823e+002 -3.658501e+001  7.529913e+001  2.328019e+001 -2.884438e+000 -5.764207e+000  5.618721e+001
5.5121875000e+009 -1.138115e+001  1.201674e+002 -3.593633e+001  7.701896e+001  2.324776e+001 -3.022713e+000 -5.615977e+000  5.609391e+001
5.5123125000e+009 -1.136174e+001  1.208915e+002 -3.634692e+001  7.447582e+001  2.319688e+001 -3.078325e+000 -5.639282e+000  5.545743e+001
5.5124375000e+009 -1.139393e+001  1.207487e+002 -3.645027e+001  7.529373e+001  2.319629e+001 -3.743956e+000 -5.711864e+000  5.542024e+001
5.5125625000e+009 -1.132833e+001  1.195962e+002 -3.679293e+001  7.804559e+001  2.327459e+001 -3.464248e+000 -5.731685e+000  5.559138e+001
5.5126875000e+009 -1.127892e+001  1.200558e+002 -3.651208e+001  7.322498e+001  2.316332e+001 -3.900297e+000 -5.670313e+000  5.445020e+001
5.5128125000e+009 -1.133760e+001  1.194998e+002 -3.655032e+001  7.369409e+001  2.341983e+001 -4.098930e+000 -5.672521e+000  5.380497e+001
5.5129375000e+009 -1.141250e+001  1.200689e+002 -3.622354e+001  6.961520e+001  2.330514e+001 -4.625140e+000 -5.674085e+000  5.280633e+001
5.5130625000e+009 -1.136176e+001  1.188125e+002 -3.677053e+001  7.370940e+001  2.337066e+001 -4.381798e+000 -5.668750e+000  5.340771e+001
5.5131875000e+009 -1.131678e+001  1.190089e+002 -3.736003e+001  6.650275e+001  2.328494e+001 -4.521148e+000 -5.846206e+000  5.243287e+001
5.5133125000e+009 -1.137796e+001  1.184217e+002 -3.692621e+001  7.200813e+001  2.330906e+001 -5.140735e+000 -5.719129e+000  5.264397e+001
5.5134375000e+009 -1.140155e+001  1.181172e+002 -3.624409e+001  6.980730e+001  2.327824e+001 -5.430634e+000 -5.680239e+000  5.174240e+001
5.5135625000e+009 -1.143091e+001  1.178553e+002 -3.689218e+001  6.938140e+001  2.341779e+001 -5.223670e+000 -5.711250e+000  5.137223e+001
5.5136875000e+009 -1.142793e+001  1.170389e+002 -3.646855e+001  7.436375e+001  2.338629e+001 -6.130536e+000 -5.643774e+000  5.151108e+001
5.5138125000e+009 -1.144710e+001  1.168348e+002 -3.627241e+001  7.276457e+001  2.331611e+001 -6.311034e+000 -5.639098e+000  5.121334e+001
5.5139375000e+009 -1.138825e+001  1.168236e+002 -3.697235e+001  7.261650e+001  2.328991e+001 -6.194083e+000 -5.704084e+000  5.141288e+001
5.5140625000e+009 -1.149504e+001  1.168708e+002 -3.636816e+001  6.878391e+001  2.338647e+001 -6.653009e+000 -5.664217e+000  5.000977e+001
5.5141875000e+009 -1.138976e+001  1.164969e+002 -3.685577e+001  6.620157e+001  2.322444e+001 -7.286772e+000 -5.778560e+000  4.950033e+001
5.5143125000e+009 -1.152024e+001  1.159230e+002 -3.621596e+001  7.077547e+001  2.338098e+001 -7.133560e+000 -5.612101e+000  4.975841e+001
5.5144375000e+009 -1.155303e+001  1.156477e+002 -3.610112e+001  6.672952e+001  2.334475e+001 -7.652137e+000 -5.661508e+000  4.846000e+001
5.5145625000e+009 -1.148330e+001  1.160481e+002 -3.671049e+001  6.202250e+001  2.332289e+001 -7.901446e+000 -5.801692e+000  4.816140e+001
5.5146875000e+009 -1.142843e+001  1.144704e+002 -3.708456e+001  7.572005e+001  2.342828e+001 -7.857684e+000 -5.681513e+000  4.985466e+001
5.5148125000e+009 -1.141450e+001  1.145137e+002 -3.730315e+001  7.013673e+001  2.332736e+001 -8.378145e+000 -5.745612e+000  4.892755e+001
5.5149375000e+009 -1.155524e+001  1.141454e+002 -3.674540e+001  6.917166e+001  2.336622e+001 -8.489701e+000 -5.689950e+000  4.815964e+001
5.5150625000e+009 -1.147481e+001  1.134542e+002 -3.689064e+001  7.210294e+001  2.341234e+001 -8.664456e+000 -5.677941e+000  4.830242e+001
5.5151875000e+009 -1.148076e+001  1.134170e+002 -3.732510e+001  6.837656e+001  2.351211e+001 -8.719236e+000 -5.739482e+000  4.781960e+001
5.5153125000e+009 -1.146994e+001  1.127283e+002 -3.694573e+001  7.043531e+001  2.336882e+001 -9.152615e+000 -5.657033e+000  4.778444e+001
5.5154375000e+009 -1.151929e+001  1.132290e+002 -3.671540e+001  7.003897e+001  2.346065e+001 -9.286209e+000 -5.638635e+000  4.694556e+001
5.5155625000e+009 -1.150166e+001  1.123077e+002 -3.702292e+001  7.009691e+001  2.347116e+001 -9.577318e+000 -5.690402e+000  4.704787e+001
5.5156875000e+009 -1.148235e+001  1.124674e+002 -3.720406e+001  6.783887e+001  2.343459e+001 -1.002246e+001 -5.674590e+000  4.646645e+001
5.5158125000e+009 -1.151549e+001  1.112195e+002 -3.636847e+001  7.273093e+001  2.342208e+001 -1.028268e+001 -5.573678e+000  4.638421e+001
5.5159375000e+009 -1.147287e+001  1.120654e+002 -3.794637e+001  6.827869e+001  2.348034e+001 -1.047466e+001 -5.807394e+000  4.669255e+001
5.5160625000e+009 -1.139894e+001  1.110074e+002 -3.797171e+001  6.770685e+001  2.345933e+001 -1.067894e+001 -5.794031e+000  4.594206e+001
5.5161875000e+009 -1.140342e+001  1.110450e+002 -3.782926e+001  6.613295e+001  2.348991e+001 -1.095346e+001 -5.787097e+000  4.546094e+001
5.5163125000e+009 -1.147509e+001  1.111764e+002 -3.702975e+001  6.744424e+001  2.348431e+001 -1.121868e+001 -5.679330e+000  4.492632e+001
5.5164375000e+009 -1.142715e+001  1.097663e+002 -3.727629e+001  7.017356e+001  2.347801e+001 -1.142283e+001 -5.657115e+000  4.526369e+001
5.5165625000e+009 -1.158277e+001  1.103041e+002 -3.697765e+001  6.897523e+001  2.347556e+001 -1.191895e+001 -5.649423e+000  4.440807e+001
5.5166875000e+009 -1.136414e+001  1.092023e+002 -3.722654e+001  6.440902e+001  2.349799e+001 -1.197649e+001 -5.669511e+000  4.388406e+001
5.5168125000e+009 -1.145214e+001  1.100872e+002 -3.754359e+001  6.574818e+001  2.350918e+001 -1.217226e+001 -5.643055e+000  4.384607e+001
5.5169375000e+009 -1.148161e+001  1.099263e+002 -3.698808e+001  6.852615e+001  2.350421e+001 -1.249542e+001 -5.652236e+000  4.392739e+001
5.5170625000e+009 -1.136311e+001  1.096748e+002 -3.757180e+001  6.520809e+001  2.347960e+001 -1.263005e+001 -5.733628e+000  4.366432e+001
5.5171875000e+009 -1.145041e+001  1.080952e+002 -3.702100e+001  6.798080e+001  2.349816e+001 -1.299487e+001 -5.541273e+000  4.367858e+001
5.5173125000e+009 -1.143942e+001  1.094452e+002 -3.748044e+001  6.350505e+001  2.352443e+001 -1.326258e+001 -5.738312e+000  4.258107e+001
5.5174375000e+009 -1.150465e+001  1.083382e+002 -3.757020e+001  6.733047e+001  2.356083e+001 -1.346239e+001 -5.739773e+000  4.302574e+001
5.5175625000e+009 -1.142485e+001  1.079791e+002 -3.737846e+001  6.226630e+001  2.355709e+001 -1.347385e+001 -5.618155e+000  4.224263e+001
5.5176875000e+009 -1.135971e+001  1.074897e+002 -3.817134e+001  6.810484e+001  2.357686e+001 -1.386810e+001 -5.710634e+000  4.283186e+001
5.5178125000e+009 -1.142682e+001  1.077077e+002 -3.757954e+001  6.625005e+001  2.354764e+001 -1.388632e+001 -5.615863e+000  4.222936e+001
5.5179375000e+009 -1.120241e+001  1.067872e+002 -3.803978e+001  6.796246e+001  2.356738e+001 -1.415613e+001 -5.702404e+000  4.272552e+001
5.5180625000e+009 -1.137330e+001  1.061798e+002 -3.747031e+001  6.507697e+001  2.361236e+001 -1.453783e+001 -5.642400e+000  4.145979e+001
5.5181875000e+009 -1.133752e+001  1.069118e+002 -3.808064e+001  6.032018e+001  2.360812e+001 -1.461687e+001 -5.769911e+000  4.074413e+001
5.5183125000e+009 -1.126157e+001  1.070895e+002 -3.787062e+001  6.272815e+001  2.361242e+001 -1.486789e+001 -5.622359e+000  4.102460e+001
5.5184375000e+009 -1.132026e+001  1.055101e+002 -3.800132e+001  6.818284e+001  2.363158e+001 -1.508362e+001 -5.601519e+000  4.177463e+001
5.5185625000e+009 -1.126756e+001  1.047198e+002 -3.809036e+001  6.705467e+001  2.363022e+001 -1.537377e+001 -5.767392e+000  4.133491e+001
5.5186875000e+009 -1.132822e+001  1.045971e+002 -3.810515e+001  6.528584e+001  2.362834e+001 -1.550249e+001 -5.617828e+000  4.090813e+001
5.5188125000e+009 -1.127007e+001  1.061151e+002 -3.761802e+001  6.585490e+001  2.362676e+001 -1.543708e+001 -5.538689e+000  4.080089e+001
5.5189375000e+009 -1.128022e+001  1.059066e+002 -3.764579e+001  5.969007e+001  2.359292e+001 -1.652728e+001 -5.857527e+000  3.946860e+001
5.5190625000e+009 -1.120024e+001  1.043746e+002 -3.816374e+001  6.453763e+001  2.367187e+001 -1.644828e+001 -5.709313e+000  4.008021e+001
5.5191875000e+009 -1.123504e+001  1.049339e+002 -3.849146e+001  6.144137e+001  2.366680e+001 -1.685059e+001 -5.712192e+000  3.954116e+001
5.5193125000e+009 -1.128440e+001  1.043203e+002 -3.775687e+001  6.599024e+001  2.364667e+001 -1.677742e+001 -5.622346e+000  3.982967e+001
5.5194375000e+009 -1.103235e+001  1.028087e+002 -3.866771e+001  6.153008e+001  2.370740e+001 -1.709350e+001 -5.761528e+000  3.963483e+001
5.5195625000e+009 -1.117681e+001  1.034338e+002 -3.812510e+001  6.499129e+001  2.367866e+001 -1.727595e+001 -5.574178e+000  3.945436e+001
5.5196875000e+009 -1.122913e+001  1.040515e+002 -3.793806e+001  6.418300e+001  2.366116e+001 -1.771342e+001 -5.775074e+000  3.898044e+001
5.5198125000e+009 -1.117628e+001  1.028915e+002 -3.791127e+001  6.214583e+001  2.371664e+001 -1.783472e+001 -5.618480e+000  3.826273e+001
5.5199375000e+009 -1.119523e+001  1.038357e+002 -3.788676e+001  5.811518e+001  2.365039e+001 -1.795294e+001 -5.661028e+000  3.849424e+001
5.5200625000e+009 -1.115060e+001  1.030501e+002 -3.805584e+001  6.163451e+001  2.370039e+001 -1.811774e+001 -5.596724e+000  3.858911e+001
5.5201875000e+009 -1.105030e+001  1.011563e+002 -3.801123e+001  6.335658e+001  2.379006e+001 -1.862724e+001 -5.620562e+000  3.785519e+001
5.5203125000e+009 -1.129080e+001  1.018705e+002 -3.766718e+001  6.546196e+001  2.369714e+001 -1.852936e+001 -5.558012e+000  3.872935e+001
5.5204375000e+009 -1.128307e+001  1.025239e+002 -3.838726e+001  6.250517e+001  2.372099e+001 -1.921043e+001 -5.703701e+000  3.779675e+001
5.5205625000e+009 -1.111791e+001  1.018352e+002 -3.815332e+001  6.145881e+001  2.371086e+001 -1.902229e+001 -5.617060e+000  3.805149e+001
5.5206875000e+009 -1.115252e+001  1.013619e+002 -3.797643e+001  6.382554e+001  2.376022e+001 -1.953117e+001 -5.678160e+000  3.722441e+001
5.5208125000e+009 -1.129630e+001  1.008453e+002 -3.876342e+001  6.637387e+001  2.375338e+001 -2.011103e+001 -5.703050e+000  3.774932e+001
5.5209375000e+009 -1.093854e+001  1.010750e+002 -3.853883e+001  6.418525e+001  2.373772e+001 -1.962199e+001 -5.603348e+000  3.832428e+001
5.5210625000e+009 -1.129946e+001  1.018468e+002 -3.778500e+001  5.980647e+001  2.379143e+001 -2.050013e+001 -5.649094e+000  3.605536e+001
5.5211875000e+009 -1.110118e+001  1.010151e+002 -3.859534e+001  5.818426e+001  2.370941e+001 -2.013328e+001 -5.754752e+000  3.744449e+001
5.5213125000e+009 -1.062498e+001  1.007100e+002 -3.857464e+001  5.419058e+001  2.379381e+001 -1.989657e+001 -5.686864e+000  3.657940e+001
5.5214375000e+009 -1.099803e+001  1.007119e+002 -3.899749e+001  5.737091e+001  2.382224e+001 -2.081212e+001 -5.784981e+000  3.600840e+001
5.5215625000e+009 -1.102846e+001  1.004220e+002 -3.834291e+001  5.603493e+001  2.386353e+001 -2.129993e+001 -5.725052e+000  3.467294e+001
5.5216875000e+009 -1.106163e+001  9.989194e+001 -3.825051e+001  6.150808e+001  2.381739e+001 -2.090456e+001 -5.550293e+000  3.640012e+001
5.5218125000e+009 -1.101311e+001  9.981084e+001 -3.788990e+001  5.838504e+001  2.378467e+001 -2.104124e+001 -5.549879e+000  3.620539e+001
5.5219375000e+009 -1.116187e+001  9.956191e+001 -3.886591e+001  5.600365e+001  2.382069e+001 -2.284151e+001 -5.908214e+000  3.488426e+001
5.5220625000e+009 -1.083815e+001  9.861193e+001 -3.894202e+001  6.038208e+001  2.387288e+001 -2.159231e+001 -5.620087e+000  3.605480e+001
5.5221875000e+009 -1.084418e+001  9.923459e+001 -3.880144e+001  5.747019e+001  2.378613e+001 -2.244130e+001 -5.784290e+000  3.592581e+001
5.5223125000e+009 -1.097465e+001  9.874229e+001 -3.881513e+001  5.566584e+001  2.387640e+001 -2.232026e+001 -5.677209e+000  3.530746e+001
5.5224375000e+009 -1.086018e+001  9.846072e+001 -3.897153e+001  6.098146e+001  2.388939e+001 -2.296247e+001 -5.715449e+000  3.530540e+001
5.5225625000e+009 -1.083871e+001  9.823951e+001 -3.940125e+001  5.688821e+001  2.383327e+001 -2.269986e+001 -5.702303e+000  3.582825e+001
5.5226875000e+009 -1.102775e+001  9.795072e+001 -3.870308e+001  5.630239e+001  2.387921e+001 -2.343349e+001 -5.761329e+000  3.448364e+001
5.5228125000e+009 -1.078613e+001  9.773580e+001 -3.893927e+001  5.754699e+001  2.384257e+001 -2.281841e+001 -5.626567e+000  3.553258e+001
5.5229375000e+009 -1.091560e+001  9.743224e+001 -3.867506e+001  6.155974e+001  2.384171e+001 -2.391289e+001 -5.638418e+000  3.500130e+001
5.5230625000e+009 -1.080026e+001  9.749985e+001 -3.916805e+001  5.847423e+001  2.397449e+001 -2.392974e+001 -5.678501e+000  3.412235e+001
5.5231875000e+009 -1.066156e+001  9.700488e+001 -3.939313e+001  5.644635e+001  2.389239e+001 -2.399277e+001 -5.733207e+000  3.490483e+001
5.5233125000e+009 -1.075829e+001  9.725739e+001 -3.902740e+001  5.632608e+001  2.385977e+001 -2.413493e+001 -5.723842e+000  3.473291e+001
5.5234375000e+009 -1.087067e+001  9.670690e+001 -3.890181e+001  5.688940e+001  2.388783e+001 -2.477583e+001 -5.694866e+000  3.436499e+001
5.5235625000e+009 -1.064625e+001  9.653510e+001 -3.941785e+001  5.393855e+001  2.395473e+001 -2.514096e+001 -5.821104e+000  3.370055e+001
5.5236875000e+009 -1.078853e+001  9.642759e+001 -3.852261e+001  5.902935e+001  2.400216e+001 -2.505820e+001 -5.566888e+000  3.291440e+001
5.5238125000e+009 -1.083989e+001  9.587599e+001 -3.935897e+001  5.721054e+001  2.397612e+001 -2.590614e+001 -5.773092e+000  3.305838e+001
5.5239375000e+009 -1.068169e+001  9.515002e+001 -3.907504e+001  6.204881e+001  2.394758e+001 -2.553573e+001 -5.592436e+000  3.384203e+001
5.5240625000e+009 -1.077672e+001  9.574676e+001 -3.874187e+001  5.740044e+001  2.391421e+001 -2.507621e+001 -5.528244e+000  3.416246e+001
5.5241875000e+009 -1.077087e+001  9.479066e+001 -3.934211e+001  5.649502e+001  2.403711e+001 -2.616363e+001 -5.612133e+000  3.238881e+001
5.5243125000e+009 -1.074161e+001  9.536740e+001 -3.939590e+001  5.825809e+001  2.402570e+001 -2.624302e+001 -5.614904e+000  3.288617e+001
5.5244375000e+009 -1.070598e+001  9.498965e+001 -3.937412e+001  5.651143e+001  2.407720e+001 -2.685841e+001 -5.718762e+000  3.176695e+001
5.5245625000e+009 -1.080807e+001  9.425651e+001 -3.937242e+001  5.643876e+001  2.406227e+001 -2.742234e+001 -5.737538e+000  3.178634e+001
5.5246875000e+009 -1.060421e+001  9.509396e+001 -3.953907e+001  5.612880e+001  2.398262e+001 -2.706638e+001 -5.742960e+000  3.305883e+001
5.5248125000e+009 -1.069192e+001  9.450076e+001 -3.880812e+001  5.784964e+001  2.390583e+001 -2.657473e+001 -5.530408e+000  3.377170e+001
5.5249375000e+009 -1.064227e+001  9.410432e+001 -3.927658e+001  5.461864e+001  2.406970e+001 -2.735850e+001 -5.645721e+000  3.164548e+001
5.5250625000e+009 -1.058228e+001  9.410606e+001 -3.994569e+001  5.758482e+001  2.401690e+001 -2.785318e+001 -5.715658e+000  3.268026e+001
5.5251875000e+009 -1.055946e+001  9.400629e+001 -3.972128e+001  5.326876e+001  2.395975e+001 -2.765165e+001 -5.720517e+000  3.337312e+001
5.5253125000e+009 -1.058111e+001  9.335584e+001 -3.944785e+001  5.593203e+001  2.411092e+001 -2.864371e+001 -5.753539e+000  3.073536e+001
5.5254375000e+009 -1.047876e+001  9.323976e+001 -3.973672e+001  5.910117e+001  2.404906e+001 -2.824846e+001 -5.704365e+000  3.248093e+001
5.5255625000e+009 -1.056232e+001  9.315627e+001 -3.894806e+001  6.027073e+001  2.407917e+001 -2.892793e+001 -5.659063e+000  3.098185e+001
5.5256875000e+009 -1.062829e+001  9.274035e+001 -3.951569e+001  5.712064e+001  2.396160e+001 -2.873897e+001 -5.714577e+000  3.230843e+001
5.5258125000e+009 -1.037280e+001  9.343941e+001 -3.989540e+001  5.473554e+001  2.390482e+001 -2.915533e+001 -5.946472e+000  3.340303e+001
5.5259375000e+009 -1.042375e+001  9.335071e+001 -3.965076e+001  5.377237e+001  2.397798e+001 -2.876748e+001 -5.759903e+000  3.230068e+001
5.5260625000e+009 -1.048525e+001  9.297390e+001 -3.955632e+001  5.847148e+001  2.410836e+001 -2.992726e+001 -5.799498e+000  3.032478e+001
5.5261875000e+009 -1.034664e+001  9.362651e+001 -3.971968e+001  4.917779e+001  2.402597e+001 -2.973824e+001 -5.997500e+000  3.064338e+001
5.5263125000e+009 -1.035849e+001  9.277795e+001 -3.966901e+001  5.412429e+001  2.392449e+001 -2.974751e+001 -5.905279e+000  3.221704e+001
5.5264375000e+009 -1.032947e+001  9.252972e+001 -3.961135e+001  5.645395e+001  2.409457e+001 -3.002480e+001 -5.826613e+000  3.034674e+001
5.5265625000e+009 -1.022958e+001  9.266235e+001 -3.984991e+001  5.394813e+001  2.397213e+001 -3.032601e+001 -5.939715e+000  3.137217e+001
5.5266875000e+009 -1.027841e+001  9.173332e+001 -4.002979e+001  5.765784e+001  2.399732e+001 -3.047269e+001 -5.951254e+000  3.173442e+001
5.5268125000e+009 -1.020507e+001  9.255800e+001 -3.949478e+001  4.994271e+001  2.393859e+001 -3.078293e+001 -6.018922e+000  3.074854e+001
5.5269375000e+009 -1.010578e+001  9.188432e+001 -4.060973e+001  5.085309e+001  2.408056e+001 -3.082003e+001 -6.012249e+000  3.055996e+001
5.5270625000e+009 -1.012712e+001  9.180979e+001 -4.029843e+001  5.550943e+001  2.395590e+001 -3.114496e+001 -6.055580e+000  3.165811e+001
5.5271875000e+009 -1.021064e+001  9.150252e+001 -3.991564e+001  5.634750e+001  2.411220e+001 -3.162474e+001 -5.928110e+000  2.900019e+001
5.5273125000e+009 -1.009407e+001  9.177721e+001 -4.031432e+001  5.328120e+001  2.398821e+001 -3.143658e+001 -6.028712e+000  3.074958e+001
5.5274375000e+009 -1.012424e+001  9.154141e+001 -3.986411e+001  5.570690e+001  2.411589e+001 -3.178230e+001 -5.880308e+000  2.894154e+001
5.5275625000e+009 -1.008553e+001  9.137021e+001 -3.985643e+001  5.211508e+001  2.393673e+001 -3.195174e+001 -6.114320e+000  3.111174e+001
5.5276875000e+009 -1.002557e+001  9.173077e+001 -3.973970e+001  5.373910e+001  2.404995e+001 -3.224166e+001 -6.056973e+000  2.881164e+001
5.5278125000e+009 -1.005202e+001  9.090127e+001 -4.033220e+001  5.575663e+001  2.399906e+001 -3.291447e+001 -6.235799e+000  2.992499e+001
5.5279375000e+009 -1.004309e+001  9.057771e+001 -4.076198e+001  5.758822e+001  2.409840e+001 -3.265449e+001 -5.978486e+000  2.914051e+001
5.5280625000e+009 -9.956617e+000  9.154643e+001 -3.981682e+001  5.569922e+001  2.395661e+001 -3.288132e+001 -6.053590e+000  2.956699e+001
5.5281875000e+009 -9.904496e+000  9.097768e+001 -4.002934e+001  5.048467e+001  2.408971e+001 -3.281593e+001 -6.066516e+000  2.823295e+001
5.5283125000e+009 -9.942173e+000  8.969579e+001 -4.072933e+001  5.720167e+001  2.412536e+001 -3.357086e+001 -6.173110e+000  2.793800e+001
5.5284375000e+009 -9.911959e+000  9.081597e+001 -3.974871e+001  5.279161e+001  2.400199e+001 -3.351342e+001 -6.107438e+000  2.854394e+001
5.5285625000e+009 -9.912608e+000  9.103445e+001 -3.978565e+001  5.396215e+001  2.403465e+001 -3.358633e+001 -6.081200e+000  2.802203e+001
5.5286875000e+009 -9.847131e+000  9.034322e+001 -4.064736e+001  5.401314e+001  2.406564e+001 -3.375677e+001 -6.027313e+000  2.882154e+001
5.5288125000e+009 -9.844444e+000  9.072379e+001 -4.040017e+001  5.109495e+001  2.404794e+001 -3.413131e+001 -6.229426e+000  2.779889e+001
5.5289375000e+009 -9.764734e+000  9.016630e+001 -4.139990e+001  5.410680e+001  2.404452e+001 -3.455887e+001 -6.269364e+000  2.845406e+001
5.5290625000e+009 -9.795712e+000  9.038386e+001 -4.044412e+001  5.211964e+001  2.401637e+001 -3.479775e+001 -6.300802e+000  2.791855e+001
5.5291875000e+009 -9.774754e+000  9.005630e+001 -4.057327e+001  5.476891e+001  2.399259e+001 -3.514816e+001 -6.395679e+000  2.824160e+001
5.5293125000e+009 -9.751904e+000  9.011117e+001 -4.047172e+001  5.238774e+001  2.404956e+001 -3.506495e+001 -6.192383e+000  2.720675e+001
5.5294375000e+009 -9.688110e+000  8.973056e+001 -4.104228e+001  5.093904e+001  2.409753e+001 -3.510543e+001 -6.203670e+000  2.705244e+001
5.5295625000e+009 -9.692309e+000  8.980029e+001 -4.036919e+001  5.189912e+001  2.407445e+001 -3.502415e+001 -6.068532e+000  2.722579e+001
5.5296875000e+009 -9.627326e+000  8.969992e+001 -4.104075e+001  4.985135e+001  2.394669e+001 -3.557782e+001 -6.425445e+000  2.929242e+001
5.5298125000e+009 -9.674875e+000  8.934332e+001 -4.065550e+001  5.434623e+001  2.410041e+001 -3.616252e+001 -6.243786e+000  2.571793e+001
5.5299375000e+009 -9.631889e+000  8.949927e+001 -4.056910e+001  5.156413e+001  2.407664e+001 -3.630140e+001 -6.494540e+000  2.526151e+001
5.5300625000e+009 -9.591929e+000  8.936227e+001 -4.100589e+001  5.173808e+001  2.401422e+001 -3.651116e+001 -6.362840e+000  2.649008e+001
5.5301875000e+009 -9.586614e+000  8.937962e+001 -4.065337e+001  5.302440e+001  2.401572e+001 -3.696994e+001 -6.317217e+000  2.590962e+001
5.5303125000e+009 -9.583817e+000  8.933978e+001 -4.062984e+001  5.205677e+001  2.404055e+001 -3.647632e+001 -6.446035e+000  2.677715e+001
5.5304375000e+009 -9.570217e+000  8.928293e+001 -4.017530e+001  5.068171e+001  2.401874e+001 -3.696812e+001 -6.454522e+000  2.633076e+001
5.5305625000e+009 -9.522765e+000  8.914355e+001 -4.095478e+001  5.051474e+001  2.402244e+001 -3.709443e+001 -6.342119e+000  2.655175e+001
5.5306875000e+009 -9.491812e+000  8.895388e+001 -4.083644e+001  5.035495e+001  2.401815e+001 -3.750709e+001 -6.558120e+000  2.574359e+001
5.5308125000e+009 -9.475993e+000  8.874980e+001 -4.102439e+001  5.436826e+001  2.389340e+001 -3.726294e+001 -6.313519e+000  2.869087e+001
5.5309375000e+009 -9.478331e+000  8.897068e+001 -4.079150e+001  5.398968e+001  2.398504e+001 -3.843126e+001 -6.586324e+000  2.538507e+001
5.5310625000e+009 -9.417171e+000  8.856020e+001 -4.193243e+001  4.931478e+001  2.399137e+001 -3.825077e+001 -6.582606e+000  2.588447e+001
5.5311875000e+009 -9.449745e+000  8.850490e+001 -4.057673e+001  5.191768e+001  2.395291e+001 -3.832077e+001 -6.552221e+000  2.601938e+001
5.5313125000e+009 -9.466543e+000  8.845480e+001 -4.056273e+001  5.737211e+001  2.401150e+001 -3.896980e+001 -6.615894e+000  2.339944e+001
5.5314375000e+009 -9.391952e+000  8.839566e+001 -4.106335e+001  5.081734e+001  2.392950e+001 -3.881080e+001 -6.767322e+000  2.602743e+001
5.5315625000e+009 -9.369930e+000  8.837148e+001 -4.103682e+001  4.993179e+001  2.394695e+001 -3.910138e+001 -6.783890e+000  2.558834e+001
5.5316875000e+009 -9.403249e+000  8.828069e+001 -4.061736e+001  5.267059e+001  2.394565e+001 -3.950749e+001 -6.722184e+000  2.442531e+001
5.5318125000e+009 -9.317821e+000  8.810862e+001 -4.140005e+001  4.633615e+001  2.394195e+001 -3.976437e+001 -6.832608e+000  2.433355e+001
5.5319375000e+009 -9.326075e+000  8.788403e+001 -4.146116e+001  5.437826e+001  2.391272e+001 -3.961546e+001 -6.645983e+000  2.620579e+001
5.5320625000e+009 -9.363770e+000  8.820590e+001 -4.026480e+001  5.320705e+001  2.393876e+001 -4.026152e+001 -6.763164e+000  2.322095e+001
5.5321875000e+009 -9.313233e+000  8.785110e+001 -4.067380e+001  5.105575e+001  2.395064e+001 -4.032424e+001 -6.864355e+000  2.305460e+001
5.5323125000e+009 -9.272462e+000  8.760505e+001 -4.201978e+001  5.090667e+001  2.392376e+001 -4.048210e+001 -6.797058e+000  2.529922e+001
5.5324375000e+009 -9.302098e+000  8.753016e+001 -4.105205e+001  5.637883e+001  2.393138e+001 -4.078666e+001 -6.740368e+000  2.385080e+001
5.5325625000e+009 -9.220591e+000  8.751612e+001 -4.143145e+001  4.885097e+001  2.390258e+001 -4.106519e+001 -6.935088e+000  2.411093e+001
5.5326875000e+009 -9.254570e+000  8.767516e+001 -4.096030e+001  4.733034e+001  2.390040e+001 -4.099317e+001 -6.976315e+000  2.273829e+001
5.5328125000e+009 -9.202085e+000  8.761737e+001 -4.123781e+001  4.617540e+001  2.393881e+001 -4.179573e+001 -7.118266e+000  2.095337e+001
5.5329375000e+009 -9.206301e+000  8.746719e+001 -4.109881e+001  4.735367e+001  2.389390e+001 -4.170607e+001 -6.991325e+000  2.317736e+001
5.5330625000e+009 -9.203743e+000  8.702403e+001 -4.198422e+001  5.445876e+001  2.383655e+001 -4.180589e+001 -6.963915e+000  2.530890e+001
5.5331875000e+009 -9.212645e+000  8.719034e+001 -4.082752e+001  5.455126e+001  2.389589e+001 -4.198686e+001 -7.029669e+000  2.293805e+001
5.5333125000e+009 -9.174793e+000  8.711417e+001 -4.166654e+001  5.184908e+001  2.383180e+001 -4.205810e+001 -7.186522e+000  2.388494e+001
5.5334375000e+009 -9.177801e+000  8.702074e+001 -4.138396e+001  5.255190e+001  2.384468e+001 -4.267030e+001 -7.021586e+000  2.291981e+001
5.5335625000e+009 -9.163991e+000  8.698375e+001 -4.147820e+001  4.839182e+001  2.386135e+001 -4.272799e+001 -7.178896e+000  2.168277e+001
5.5336875000e+009 -9.132373e+000  8.685936e+001 -4.146341e+001  5.379954e+001  2.382813e+001 -4.308221e+001 -7.102567e+000  2.239489e+001
5.5338125000e+009 -9.120083e+000  8.709048e+001 -4.096239e+001  4.709578e+001  2.384860e+001 -4.319560e+001 -7.227683e+000  2.257688e+001
5.5339375000e+009 -9.092087e+000  8.678439e+001 -4.166713e+001  5.220612e+001  2.384867e+001 -4.351937e+001 -7.155434e+000  2.177302e+001
5.5340625000e+009 -9.060809e+000  8.655348e+001 -4.235221e+001  5.317803e+001  2.383194e+001 -4.365894e+001 -7.172302e+000  2.196799e+001
5.5341875000e+009 -9.034415e+000  8.664194e+001 -4.223493e+001  4.663962e+001  2.379133e+001 -4.378934e+001 -7.323547e+000  2.217933e+001
5.5343125000e+009 -9.086653e+000  8.657966e+001 -4.153437e+001  5.604152e+001  2.379314e+001 -4.408865e+001 -7.111668e+000  2.088079e+001
5.5344375000e+009 -9.077456e+000  8.645139e+001 -4.079609e+001  5.428175e+001  2.378675e+001 -4.456276e+001 -7.161337e+000  2.069814e+001
5.5345625000e+009 -9.037455e+000  8.636745e+001 -4.162595e+001  5.283712e+001  2.378894e+001 -4.424139e+001 -7.239774e+000  2.250911e+001
5.5346875000e+009 -9.041082e+000  8.640466e+001 -4.163534e+001  5.333005e+001  2.373188e+001 -4.514097e+001 -7.298949e+000  2.009057e+001
5.5348125000e+009 -9.045406e+000  8.620095e+001 -4.119923e+001  5.248540e+001  2.374959e+001 -4.484819e+001 -7.363222e+000  2.147500e+001
5.5349375000e+009 -9.012815e+000  8.640054e+001 -4.132979e+001  5.405490e+001  2.373540e+001 -4.504812e+001 -7.302876e+000  2.120314e+001
5.5350625000e+009 -8.969975e+000  8.634794e+001 -4.187159e+001  5.153741e+001  2.373692e+001 -4.599275e+001 -7.211685e+000  1.935338e+001
5.5351875000e+009 -9.013376e+000  8.592821e+001 -4.136065e+001  5.237152e+001  2.373332e+001 -4.589664e+001 -7.360689e+000  1.970646e+001
5.5353125000e+009 -8.991453e+000  8.548363e+001 -4.192556e+001  5.261609e+001  2.373281e+001 -4.588754e+001 -7.420436e+000  2.110149e+001
5.5354375000e+009 -8.933556e+000  8.617625e+001 -4.224995e+001  4.761246e+001  2.368354e+001 -4.620416e+001 -7.525103e+000  1.970800e+001
5.5355625000e+009 -8.975331e+000  8.581936e+001 -4.155263e+001  5.212502e+001  2.366359e+001 -4.618896e+001 -7.515542e+000  1.935577e+001
5.5356875000e+009 -8.925373e+000  8.575209e+001 -4.219628e+001  5.205365e+001  2.368327e+001 -4.636049e+001 -7.497622e+000  2.037513e+001
5.5358125000e+009 -8.891425e+000  8.591368e+001 -4.216264e+001  4.642494e+001  2.367646e+001 -4.705624e+001 -7.583717e+000  1.945825e+001
5.5359375000e+009 -8.923899e+000  8.555302e+001 -4.195662e+001  5.361581e+001  2.368392e+001 -4.715956e+001 -7.578670e+000  2.049227e+001
5.5360625000e+009 -8.918718e+000  8.542027e+001 -4.117295e+001  4.753210e+001  2.368896e+001 -4.678474e+001 -7.675576e+000  2.007433e+001
5.5361875000e+009 -8.887710e+000  8.558114e+001 -4.229615e+001  5.243235e+001  2.360749e+001 -4.772998e+001 -7.582343e+000  1.868448e+001
5.5363125000e+009 -8.901377e+000  8.543553e+001 -4.222530e+001  5.390430e+001  2.365193e+001 -4.730768e+001 -7.681871e+000  1.994304e+001
5.5364375000e+009 -8.852989e+000  8.536272e+001 -4.174465e+001  4.864605e+001  2.364491e+001 -4.752927e+001 -7.763282e+000  1.929957e+001
5.5365625000e+009 -8.843338e+000  8.541885e+001 -4.273988e+001  4.764541e+001  2.358075e+001 -4.872414e+001 -7.699428e+000  1.864764e+001
5.5366875000e+009 -8.847757e+000  8.533960e+001 -4.220023e+001  5.306056e+001  2.360488e+001 -4.822678e+001 -7.748794e+000  1.920757e+001
5.5368125000e+009 -8.851732e+000  8.506915e+001 -4.148185e+001  5.192146e+001  2.361412e+001 -4.818153e+001 -7.789502e+000  1.879194e+001
5.5369375000e+009 -8.850993e+000  8.499509e+001 -4.208930e+001  5.199489e+001  2.356452e+001 -4.881414e+001 -7.823436e+000  1.834781e+001
5.5370625000e+009 -8.840850e+000  8.505228e+001 -4.227300e+001  5.478346e+001  2.354811e+001 -4.887151e+001 -7.817435e+000  1.830176e+001
5.5371875000e+009 -8.822415e+000  8.497282e+001 -4.234462e+001  5.272173e+001  2.363094e+001 -4.883185e+001 -7.783677e+000  1.901973e+001
5.5373125000e+009 -8.786667e+000  8.533264e+001 -4.258664e+001  5.117667e+001  2.353567e+001 -4.955368e+001 -7.887006e+000  1.833626e+001
5.5374375000e+009 -8.789639e+000  8.492098e+001 -4.241796e+001  4.938963e+001  2.350924e+001 -4.935230e+001 -7.988672e+000  1.855233e+001
5.5375625000e+009 -8.789651e+000  8.488672e+001 -4.136761e+001  5.419463e+001  2.349121e+001 -4.956628e+001 -7.925097e+000  1.734502e+001
5.5376875000e+009 -8.783054e+000  8.506115e+001 -4.151325e+001  5.155162e+001  2.345328e+001 -5.034782e+001 -7.931711e+000  1.655631e+001
5.5378125000e+009 -8.743572e+000  8.477772e+001 -4.286618e+001  5.437966e+001  2.351665e+001 -5.015484e+001 -7.951298e+000  1.764335e+001
5.5379375000e+009 -8.771150e+000  8.478210e+001 -4.230814e+001  4.808952e+001  2.355492e+001 -4.974936e+001 -8.094817e+000  1.778734e+001
5.5380625000e+009 -8.721888e+000  8.504026e+001 -4.219563e+001  4.890424e+001  2.353521e+001 -5.010402e+001 -8.199144e+000  1.693926e+001
5.5381875000e+009 -8.730256e+000  8.493707e+001 -4.213081e+001  5.077083e+001  2.348670e+001 -5.101438e+001 -8.127276e+000  1.633405e+001
5.5383125000e+009 -8.733701e+000  8.481554e+001 -4.169258e+001  5.065388e+001  2.344794e+001 -5.029493e+001 -8.192856e+000  1.649952e+001
5.5384375000e+009 -8.713951e+000  8.517451e+001 -4.152786e+001  5.102584e+001  2.343754e+001 -5.132213e+001 -8.222692e+000  1.537966e+001
5.5385625000e+009 -8.704793e+000  8.483128e+001 -4.218241e+001  4.762524e+001  2.336676e+001 -5.094197e+001 -8.255629e+000  1.576416e+001
5.5386875000e+009 -8.670074e+000  8.468172e+001 -4.213974e+001  4.980325e+001  2.341737e+001 -5.078287e+001 -8.230801e+000  1.565696e+001
5.5388125000e+009 -8.674536e+000  8.544002e+001 -4.174646e+001  5.253846e+001  2.339341e+001 -5.187973e+001 -8.246281e+000  1.484387e+001
5.5389375000e+009 -8.669824e+000  8.499183e+001 -4.234844e+001  4.831674e+001  2.338870e+001 -5.224252e+001 -8.258920e+000  1.465900e+001
5.5390625000e+009 -8.643619e+000  8.495061e+001 -4.203310e+001  4.842074e+001  2.343295e+001 -5.161347e+001 -8.323716e+000  1.439140e+001
5.5391875000e+009 -8.617411e+000  8.487344e+001 -4.288868e+001  5.120749e+001  2.334034e+001 -5.242484e+001 -8.323695e+000  1.459031e+001
5.5393125000e+009 -8.630429e+000  8.497453e+001 -4.218565e+001  5.050549e+001  2.336859e+001 -5.247009e+001 -8.384205e+000  1.407727e+001
5.5394375000e+009 -8.607415e+000  8.478909e+001 -4.232877e+001  4.941070e+001  2.337358e+001 -5.236583e+001 -8.373325e+000  1.394908e+001
5.5395625000e+009 -8.625829e+000  8.499546e+001 -4.246657e+001  5.118145e+001  2.329919e+001 -5.295575e+001 -8.372899e+000  1.375903e+001
5.5396875000e+009 -8.577978e+000  8.463708e+001 -4.258200e+001  5.022393e+001  2.336315e+001 -5.317000e+001 -8.409893e+000  1.289758e+001
5.5398125000e+009 -8.587772e+000  8.485294e+001 -4.267984e+001  4.862860e+001  2.338828e+001 -5.193517e+001 -8.381360e+000  1.335800e+001
5.5399375000e+009 -8.590816e+000  8.528941e+001 -4.237471e+001  4.682732e+001  2.332146e+001 -5.268772e+001 -8.498555e+000  1.266946e+001
5.5400625000e+009 -8.563759e+000  8.503065e+001 -4.223847e+001  5.124411e+001  2.335584e+001 -5.386038e+001 -8.526482e+000  1.189476e+001
5.5401875000e+009 -8.561087e+000  8.464727e+001 -4.247835e+001  5.452545e+001  2.328004e+001 -5.261507e+001 -8.331453e+000  1.274652e+001
5.5403125000e+009 -8.549873e+000  8.503857e+001 -4.243592e+001  4.974609e+001  2.329947e+001 -5.386800e+001 -8.568544e+000  1.155938e+001
5.5404375000e+009 -8.547866e+000  8.502094e+001 -4.260933e+001  5.136406e+001  2.324940e+001 -5.475377e+001 -8.564227e+000  1.139457e+001
5.5405625000e+009 -8.536600e+000  8.479985e+001 -4.252349e+001  5.044027e+001  2.326420e+001 -5.381224e+001 -8.579075e+000  1.139398e+001
5.5406875000e+009 -8.541715e+000  8.477364e+001 -4.265543e+001  5.351096e+001  2.324460e+001 -5.402002e+001 -8.513434e+000  1.106169e+001
5.5408125000e+009 -8.515949e+000  8.501134e+001 -4.279461e+001  5.116071e+001  2.328673e+001 -5.422561e+001 -8.529692e+000  1.073572e+001
5.5409375000e+009 -8.528214e+000  8.499128e+001 -4.249180e+001  4.957970e+001  2.325294e+001 -5.425772e+001 -8.641623e+000  1.005707e+001
5.5410625000e+009 -8.519844e+000  8.501254e+001 -4.274693e+001  5.211858e+001  2.324513e+001 -5.491271e+001 -8.604543e+000  1.014862e+001
5.5411875000e+009 -8.510162e+000  8.512950e+001 -4.162759e+001  4.859447e+001  2.322208e+001 -5.524125e+001 -8.682350e+000  9.154346e+000
5.5413125000e+009 -8.499886e+000  8.477457e+001 -4.190363e+001  4.631902e+001  2.313314e+001 -5.523654e+001 -8.747996e+000  9.924019e+000
5.5414375000e+009 -8.505507e+000  8.486906e+001 -4.244682e+001  5.347329e+001  2.327489e+001 -5.686869e+001 -8.849984e+000  8.636399e+000
5.5415625000e+009 -8.481863e+000  8.498956e+001 -4.223394e+001  4.852035e+001  2.313120e+001 -5.574279e+001 -8.778167e+000  8.934193e+000
5.5416875000e+009 -8.463101e+000  8.468407e+001 -4.210183e+001  5.160638e+001  2.317400e+001 -5.574627e+001 -8.685109e+000  9.128376e+000
5.5418125000e+009 -8.490700e+000  8.494937e+001 -4.240932e+001  5.064993e+001  2.311815e+001 -5.599076e+001 -8.727483e+000  8.289379e+000
5.5419375000e+009 -8.483875e+000  8.497775e+001 -4.242066e+001  5.423571e+001  2.306345e+001 -5.601600e+001 -8.706115e+000  8.555321e+000
5.5420625000e+009 -8.438320e+000  8.489309e+001 -4.239473e+001  4.884398e+001  2.312048e+001 -5.586203e+001 -8.718011e+000  8.006885e+000
5.5421875000e+009 -8.482170e+000  8.517731e+001 -4.243339e+001  4.899801e+001  2.310967e+001 -5.656704e+001 -8.851392e+000  6.961343e+000
5.5423125000e+009 -8.475748e+000  8.513697e+001 -4.232422e+001  5.284346e+001  2.308246e+001 -5.715350e+001 -8.863843e+000  7.054229e+000
5.5424375000e+009 -8.433548e+000  8.489346e+001 -4.321594e+001  5.075508e+001  2.304126e+001 -5.665453e+001 -8.829597e+000  8.060142e+000
5.5425625000e+009 -8.437216e+000  8.495036e+001 -4.274517e+001  4.937952e+001  2.315157e+001 -5.696266e+001 -8.832956e+000  6.447663e+000
5.5426875000e+009 -8.443307e+000  8.498962e+001 -4.287114e+001  5.450924e+001  2.299046e+001 -5.683945e+001 -8.746834e+000  7.546614e+000
5.5428125000e+009 -8.408056e+000  8.472178e+001 -4.351743e+001  4.613256e+001  2.301444e+001 -5.660486e+001 -8.851800e+000  7.610928e+000
5.5429375000e+009 -8.420484e+000  8.504665e+001 -4.212506e+001  4.502360e+001  2.304213e+001 -5.712720e+001 -8.916979e+000  5.960726e+000
5.5430625000e+009 -8.433633e+000  8.519007e+001 -4.264476e+001  4.678550e+001  2.301014e+001 -5.840742e+001 -9.088175e+000  5.755821e+000
5.5431875000e+009 -8.395161e+000  8.475495e+001 -4.256614e+001  4.868451e+001  2.300905e+001 -5.801746e+001 -8.898032e+000  5.423455e+000
5.5433125000e+009 -8.406779e+000  8.488573e+001 -4.320164e+001  4.742962e+001  2.303533e+001 -5.826922e+001 -8.991630e+000  5.374870e+000
5.5434375000e+009 -8.407201e+000  8.493140e+001 -4.240862e+001  4.787088e+001  2.297684e+001 -5.796096e+001 -8.913338e+000  4.966316e+000
5.5435625000e+009 -8.384772e+000  8.491559e+001 -4.260303e+001  4.315932e+001  2.292799e+001 -5.799524e+001 -8.989380e+000  5.440405e+000
5.5436875000e+009 -8.394482e+000  8.502949e+001 -4.232436e+001  4.332034e+001  2.284460e+001 -5.797870e+001 -8.985952e+000  5.954235e+000
5.5438125000e+009 -8.398414e+000  8.502526e+001 -4.275137e+001  4.936267e+001  2.291457e+001 -5.893868e+001 -9.070433e+000  4.712667e+000
5.5439375000e+009 -8.389707e+000  8.481983e+001 -4.228717e+001  4.860193e+001  2.296631e+001 -5.874408e+001 -8.983969e+000  3.481683e+000
5.5440625000e+009 -8.385520e+000  8.507628e+001 -4.211787e+001  4.139571e+001  2.284292e+001 -5.836562e+001 -8.997915e+000  4.761275e+000
5.5441875000e+009 -8.393629e+000  8.495906e+001 -4.280578e+001  4.989183e+001  2.291422e+001 -5.900274e+001 -8.961673e+000  3.694409e+000
5.5443125000e+009 -8.356398e+000  8.481399e+001 -4.259797e+001  4.471373e+001  2.283209e+001 -5.912050e+001 -9.109482e+000  4.576349e+000
5.5444375000e+009 -8.387081e+000  8.507318e+001 -4.277378e+001  4.764687e+001  2.270060e+001 -5.896873e+001 -9.075419e+000  5.284172e+000
5.5445625000e+009 -8.371364e+000  8.492101e+001 -4.336181e+001  5.096236e+001  2.287212e+001 -5.984619e+001 -9.114662e+000  3.654750e+000
5.5446875000e+009 -8.369995e+000  8.476785e+001 -4.325803e+001  5.001507e+001  2.285480e+001 -5.989331e+001 -9.128448e+000  3.316082e+000
5.5448125000e+009 -8.368910e+000  8.489622e+001 -4.203352e+001  4.916609e+001  2.286565e+001 -6.003251e+001 -9.192408e+000  2.656118e+000
5.5449375000e+009 -8.363657e+000  8.503238e+001 -4.201296e+001  4.296714e+001  2.285797e+001 -6.041718e+001 -9.252218e+000  1.057896e+000
5.5450625000e+009 -8.347919e+000  8.484934e+001 -4.300332e+001  4.523977e+001  2.281760e+001 -6.035796e+001 -9.218911e+000  2.645399e+000
5.5451875000e+009 -8.349241e+000  8.485079e+001 -4.347780e+001  3.853861e+001  2.276480e+001 -6.016274e+001 -9.222258e+000  3.609627e+000
5.5453125000e+009 -8.347565e+000  8.489654e+001 -4.283526e+001  4.084425e+001  2.277961e+001 -6.064369e+001 -9.254403e+000  1.939630e+000
5.5454375000e+009 -8.359455e+000  8.481422e+001 -4.263453e+001  4.936440e+001  2.278650e+001 -6.078704e+001 -9.246663e+000  1.558750e+000
5.5455625000e+009 -8.349126e+000  8.488851e+001 -4.278946e+001  4.393336e+001  2.272157e+001 -6.066755e+001 -9.069295e+000  1.956737e+000
5.5456875000e+009 -8.346170e+000  8.486020e+001 -4.338344e+001  4.681300e+001  2.276089e+001 -6.116843e+001 -9.162893e+000  2.463846e+000
5.5458125000e+009 -8.335615e+000  8.485010e+001 -4.315786e+001  4.561094e+001  2.269885e+001 -6.093588e+001 -9.102567e+000  2.442515e+000
5.5459375000e+009 -8.337157e+000  8.478433e+001 -4.296992e+001  4.407172e+001  2.276021e+001 -6.130317e+001 -9.227921e+000  1.449993e+000
5.5460625000e+009 -8.338003e+000  8.489503e+001 -4.297580e+001  4.920281e+001  2.271467e+001 -6.165768e+001 -9.168870e+000  1.119934e+000
5.5461875000e+009 -8.328645e+000  8.472073e+001 -4.238573e+001  4.409917e+001  2.274109e+001 -6.160830e+001 -9.294852e+000  1.122717e+000
5.5463125000e+009 -8.341702e+000  8.493078e+001 -4.263286e+001  4.703442e+001  2.270444e+001 -6.159937e+001 -9.178596e+000  8.457626e-001
