# Hz  S  DB  R  50
! ADVANTEST Corporation R3860A
! Date: Wed Apr 11 19:52:23 2007
5.3463125000e+009 -5.198755e+000  3.366066e+000 -3.595201e+001 -2.686024e+001  2.753280e+001 -1.724365e+002 -5.328276e+000  6.481815e+001
5.3464375000e+009 -5.105047e+000  3.635598e+000 -3.635352e+001 -3.130605e+001  2.758188e+001 -1.726462e+002 -5.314589e+000  6.470945e+001
5.3465625000e+009 -5.061628e+000  3.198843e+000 -3.664754e+001 -2.634246e+001  2.767608e+001 -1.730740e+002 -5.407322e+000  6.464798e+001
5.3466875000e+009 -5.051802e+000  3.278521e+000 -3.579839e+001 -3.222333e+001  2.746099e+001 -1.733175e+002 -5.382998e+000  6.491100e+001
5.3468125000e+009 -5.020106e+000  3.096149e+000 -3.620650e+001 -3.053497e+001  2.749691e+001 -1.734379e+002 -5.446678e+000  6.485976e+001
5.3469375000e+009 -4.979420e+000  2.772391e+000 -3.586958e+001 -2.990769e+001  2.754019e+001 -1.740765e+002 -5.505318e+000  6.514565e+001
5.3470625000e+009 -4.924525e+000  2.754844e+000 -3.632016e+001 -3.062747e+001  2.747992e+001 -1.740826e+002 -5.511168e+000  6.485127e+001
5.3471875000e+009 -4.888919e+000  2.594368e+000 -3.629057e+001 -3.084622e+001  2.742084e+001 -1.747270e+002 -5.584022e+000  6.478364e+001
5.3473125000e+009 -4.882229e+000  2.295117e+000 -3.581366e+001 -2.876310e+001  2.753395e+001 -1.751557e+002 -5.642986e+000  6.516654e+001
5.3474375000e+009 -4.810302e+000  2.257447e+000 -3.631656e+001 -3.167115e+001  2.743832e+001 -1.751819e+002 -5.639368e+000  6.482070e+001
5.3475625000e+009 -4.818569e+000  2.268155e+000 -3.572249e+001 -3.271969e+001  2.754459e+001 -1.756384e+002 -5.659418e+000  6.547095e+001
5.3476875000e+009 -4.756409e+000  1.881468e+000 -3.594426e+001 -3.014104e+001  2.736522e+001 -1.760493e+002 -5.744054e+000  6.483876e+001
5.3478125000e+009 -4.727873e+000  1.892566e+000 -3.594881e+001 -3.188929e+001  2.745223e+001 -1.754679e+002 -5.764120e+000  6.522368e+001
5.3479375000e+009 -4.695284e+000  1.822972e+000 -3.570803e+001 -3.595810e+001  2.751449e+001 -1.763144e+002 -5.817575e+000  6.536888e+001
5.3480625000e+009 -4.662342e+000  1.478041e+000 -3.562129e+001 -3.331033e+001  2.751774e+001 -1.764485e+002 -5.850607e+000  6.558553e+001
5.3481875000e+009 -4.610157e+000  1.320320e+000 -3.595555e+001 -3.094750e+001  2.747132e+001 -1.768517e+002 -5.917506e+000  6.534264e+001
5.3483125000e+009 -4.592308e+000  1.523571e+000 -3.538424e+001 -3.751135e+001  2.747681e+001 -1.772189e+002 -5.902232e+000  6.561199e+001
5.3484375000e+009 -4.584568e+000  1.045413e+000 -3.507224e+001 -3.185574e+001  2.750738e+001 -1.774287e+002 -6.017664e+000  6.585902e+001
5.3485625000e+009 -4.481126e+000  8.446054e-001 -3.599457e+001 -3.458316e+001  2.737107e+001 -1.773932e+002 -6.000172e+000  6.509525e+001
5.3486875000e+009 -4.497990e+000  1.025480e+000 -3.552633e+001 -3.707188e+001  2.744882e+001 -1.779184e+002 -6.040501e+000  6.558986e+001
5.3488125000e+009 -4.453139e+000  5.091735e-001 -3.524822e+001 -3.277365e+001  2.745099e+001 -1.783132e+002 -6.109976e+000  6.578781e+001
5.3489375000e+009 -4.381234e+000  4.895285e-001 -3.569946e+001 -3.585518e+001  2.734872e+001 -1.788230e+002 -6.112461e+000  6.554586e+001
5.3490625000e+009 -4.349260e+000  7.257675e-002 -3.594341e+001 -3.305064e+001  2.742456e+001 -1.787124e+002 -6.235152e+000  6.569370e+001
5.3491875000e+009 -4.343754e+000  1.414448e-001 -3.503627e+001 -3.647099e+001  2.742394e+001 -1.789211e+002 -6.234559e+000  6.598047e+001
5.3493125000e+009 -4.286529e+000 -1.232455e-001 -3.549610e+001 -3.449076e+001  2.736707e+001 -1.792798e+002 -6.261468e+000  6.581950e+001
5.3494375000e+009 -4.258348e+000 -8.972587e-002 -3.525901e+001 -3.504579e+001  2.745778e+001 -1.798610e+002 -6.342677e+000  6.634054e+001
5.3495625000e+009 -4.184933e+000 -6.059017e-001 -3.568727e+001 -3.562088e+001  2.739609e+001  1.798585e+002 -6.395817e+000  6.598485e+001
5.3496875000e+009 -4.197757e+000 -4.869592e-001 -3.517275e+001 -3.473148e+001  2.728626e+001  1.796458e+002 -6.331955e+000  6.608253e+001
5.3498125000e+009 -4.130465e+000 -5.612034e-001 -3.527702e+001 -3.702298e+001  2.733402e+001  1.792279e+002 -6.386865e+000  6.597494e+001
5.3499375000e+009 -4.104450e+000 -1.020062e+000 -3.522091e+001 -3.360513e+001  2.737057e+001  1.793256e+002 -6.416775e+000  6.618896e+001
5.3500625000e+009 -4.058302e+000 -1.216422e+000 -3.529534e+001 -3.348334e+001  2.736389e+001  1.785684e+002 -6.487622e+000  6.635104e+001
5.3501875000e+009 -4.049844e+000 -1.247264e+000 -3.562967e+001 -3.351197e+001  2.739586e+001  1.782388e+002 -6.548890e+000  6.653858e+001
5.3503125000e+009 -4.001990e+000 -1.208505e+000 -3.483215e+001 -3.691946e+001  2.727662e+001  1.779712e+002 -6.505122e+000  6.686527e+001
5.3504375000e+009 -3.947452e+000 -1.260409e+000 -3.506517e+001 -3.738583e+001  2.730297e+001  1.779874e+002 -6.507066e+000  6.658524e+001
5.3505625000e+009 -3.891599e+000 -1.505856e+000 -3.596489e+001 -3.560555e+001  2.730828e+001  1.777152e+002 -6.606088e+000  6.622451e+001
5.3506875000e+009 -3.849320e+000 -1.663529e+000 -3.504716e+001 -3.491012e+001  2.745009e+001  1.777631e+002 -6.712756e+000  6.697188e+001
5.3508125000e+009 -3.843146e+000 -1.659275e+000 -3.484725e+001 -3.570221e+001  2.731732e+001  1.776348e+002 -6.732490e+000  6.690354e+001
5.3509375000e+009 -3.799286e+000 -1.700944e+000 -3.496067e+001 -3.730131e+001  2.727355e+001  1.770235e+002 -6.717318e+000  6.701151e+001
5.3510625000e+009 -3.666697e+000 -1.889311e+000 -3.496818e+001 -3.844490e+001  2.732540e+001  1.769514e+002 -6.754550e+000  6.679712e+001
5.3511875000e+009 -3.704101e+000 -1.884320e+000 -3.493298e+001 -3.813951e+001  2.736243e+001  1.772716e+002 -6.837863e+000  6.701575e+001
5.3513125000e+009 -3.659500e+000 -2.116883e+000 -3.511441e+001 -3.706546e+001  2.718851e+001  1.759566e+002 -6.740275e+000  6.700391e+001
5.3514375000e+009 -3.536366e+000 -2.035690e+000 -3.513527e+001 -3.620867e+001  2.733298e+001  1.763207e+002 -6.900015e+000  6.697821e+001
5.3515625000e+009 -3.577400e+000 -2.456892e+000 -3.450149e+001 -3.424000e+001  2.728482e+001  1.761811e+002 -6.900910e+000  6.749113e+001
5.3516875000e+009 -3.524463e+000 -2.477564e+000 -3.462989e+001 -3.289171e+001  2.722035e+001  1.757409e+002 -6.996744e+000  6.748386e+001
5.3518125000e+009 -3.456862e+000 -2.348830e+000 -3.485586e+001 -3.692812e+001  2.726351e+001  1.752700e+002 -6.954660e+000  6.783003e+001
5.3519375000e+009 -3.331439e+000 -2.268180e+000 -3.469051e+001 -3.913982e+001  2.720251e+001  1.751656e+002 -6.943233e+000  6.725381e+001
5.3520625000e+009 -3.431919e+000 -2.590111e+000 -3.451579e+001 -3.904811e+001  2.721830e+001  1.757530e+002 -7.011579e+000  6.722429e+001
5.3521875000e+009 -3.271096e+000 -2.571581e+000 -3.497303e+001 -3.964178e+001  2.722915e+001  1.746236e+002 -7.047743e+000  6.756277e+001
5.3523125000e+009 -3.245864e+000 -2.881562e+000 -3.478227e+001 -3.981369e+001  2.716813e+001  1.745626e+002 -7.044253e+000  6.717975e+001
5.3524375000e+009 -3.218807e+000 -3.038501e+000 -3.475005e+001 -3.645002e+001  2.719387e+001  1.744609e+002 -7.106167e+000  6.757901e+001
5.3525625000e+009 -3.162521e+000 -3.091490e+000 -3.531323e+001 -4.215327e+001  2.724656e+001  1.749855e+002 -7.262402e+000  6.664532e+001
5.3526875000e+009 -3.108557e+000 -3.117093e+000 -3.449194e+001 -3.957837e+001  2.723694e+001  1.743605e+002 -7.188260e+000  6.764220e+001
5.3528125000e+009 -3.051664e+000 -3.375484e+000 -3.536388e+001 -4.089230e+001  2.719675e+001  1.734670e+002 -7.200338e+000  6.765936e+001
5.3529375000e+009 -2.961915e+000 -3.145830e+000 -3.478669e+001 -3.819793e+001  2.719489e+001  1.735122e+002 -7.289210e+000  6.801140e+001
5.3530625000e+009 -2.993650e+000 -3.351722e+000 -3.447137e+001 -4.262224e+001  2.718301e+001  1.725342e+002 -7.162640e+000  6.870045e+001
5.3531875000e+009 -2.949741e+000 -3.574115e+000 -3.482074e+001 -3.895346e+001  2.710874e+001  1.727958e+002 -7.306393e+000  6.813839e+001
5.3533125000e+009 -2.846278e+000 -3.544532e+000 -3.447267e+001 -4.113505e+001  2.710905e+001  1.729241e+002 -7.273343e+000  6.788116e+001
5.3534375000e+009 -2.895308e+000 -4.061554e+000 -3.475051e+001 -4.319918e+001  2.714849e+001  1.726146e+002 -7.354190e+000  6.807265e+001
5.3535625000e+009 -2.909269e+000 -4.174545e+000 -3.466724e+001 -3.796667e+001  2.708759e+001  1.722687e+002 -7.426751e+000  6.824561e+001
5.3536875000e+009 -2.771215e+000 -4.353411e+000 -3.439306e+001 -4.085144e+001  2.715649e+001  1.727609e+002 -7.437236e+000  6.824723e+001
5.3538125000e+009 -2.647709e+000 -3.832459e+000 -3.449118e+001 -4.282983e+001  2.712415e+001  1.714818e+002 -7.416430e+000  6.889259e+001
5.3539375000e+009 -2.667845e+000 -4.173833e+000 -3.431504e+001 -4.169396e+001  2.706261e+001  1.712916e+002 -7.377906e+000  6.876842e+001
5.3540625000e+009 -2.648914e+000 -4.306212e+000 -3.423483e+001 -4.135870e+001  2.701045e+001  1.716021e+002 -7.516547e+000  6.828350e+001
5.3541875000e+009 -2.567914e+000 -4.115588e+000 -3.471184e+001 -4.051381e+001  2.710712e+001  1.715430e+002 -7.542783e+000  6.848345e+001
5.3543125000e+009 -2.560755e+000 -4.799762e+000 -3.457977e+001 -4.194466e+001  2.703019e+001  1.707074e+002 -7.484325e+000  6.837445e+001
5.3544375000e+009 -2.513435e+000 -5.109372e+000 -3.458745e+001 -4.494128e+001  2.697867e+001  1.704718e+002 -7.443780e+000  6.824332e+001
5.3545625000e+009 -2.417506e+000 -5.097538e+000 -3.493764e+001 -4.624755e+001  2.705736e+001  1.698376e+002 -7.545621e+000  6.902318e+001
5.3546875000e+009 -2.416193e+000 -5.057581e+000 -3.478201e+001 -4.542283e+001  2.702196e+001  1.700382e+002 -7.599089e+000  6.864139e+001
5.3548125000e+009 -2.383737e+000 -4.938875e+000 -3.469236e+001 -4.379629e+001  2.703697e+001  1.708467e+002 -7.691739e+000  6.836874e+001
5.3549375000e+009 -2.336572e+000 -5.075134e+000 -3.410107e+001 -4.189645e+001  2.698719e+001  1.695181e+002 -7.612584e+000  6.961720e+001
5.3550625000e+009 -2.341660e+000 -5.726285e+000 -3.416135e+001 -4.266690e+001  2.698995e+001  1.691254e+002 -7.641633e+000  6.988901e+001
5.3551875000e+009 -2.215707e+000 -5.635347e+000 -3.455529e+001 -4.715409e+001  2.699707e+001  1.694993e+002 -7.701735e+000  6.891733e+001
5.3553125000e+009 -2.271811e+000 -5.439293e+000 -3.445483e+001 -3.934114e+001  2.695797e+001  1.690027e+002 -7.843553e+000  6.984133e+001
5.3554375000e+009 -2.214579e+000 -6.083627e+000 -3.427048e+001 -4.560358e+001  2.700569e+001  1.693739e+002 -7.779607e+000  6.938976e+001
5.3555625000e+009 -2.151201e+000 -5.731519e+000 -3.416565e+001 -4.160172e+001  2.696302e+001  1.684858e+002 -7.808736e+000  7.031726e+001
5.3556875000e+009 -2.121441e+000 -5.974569e+000 -3.495328e+001 -4.372923e+001  2.696084e+001  1.676358e+002 -7.743628e+000  7.052225e+001
5.3558125000e+009 -2.060637e+000 -6.869915e+000 -3.402862e+001 -4.744152e+001  2.693047e+001  1.681207e+002 -7.742425e+000  6.957310e+001
5.3559375000e+009 -2.062620e+000 -6.085237e+000 -3.468308e+001 -4.403956e+001  2.692046e+001  1.680984e+002 -7.985901e+000  6.925674e+001
5.3560625000e+009 -1.992561e+000 -6.235198e+000 -3.411810e+001 -4.561725e+001  2.690433e+001  1.677239e+002 -7.804624e+000  7.018484e+001
5.3561875000e+009 -1.963145e+000 -6.079065e+000 -3.470069e+001 -4.384067e+001  2.696995e+001  1.671087e+002 -7.949112e+000  7.144007e+001
5.3563125000e+009 -1.944541e+000 -6.622313e+000 -3.448372e+001 -4.437115e+001  2.687930e+001  1.673908e+002 -7.938199e+000  6.990076e+001
5.3564375000e+009 -1.980584e+000 -6.841994e+000 -3.435252e+001 -4.402287e+001  2.685338e+001  1.671613e+002 -7.843477e+000  6.986633e+001
5.3565625000e+009 -1.892112e+000 -6.703342e+000 -3.452352e+001 -4.494703e+001  2.682431e+001  1.666450e+002 -7.886469e+000  6.989517e+001
5.3566875000e+009 -1.811388e+000 -7.082109e+000 -3.442356e+001 -4.704392e+001  2.684889e+001  1.667554e+002 -7.983528e+000  6.937144e+001
5.3568125000e+009 -1.768526e+000 -7.168817e+000 -3.480124e+001 -4.423240e+001  2.683189e+001  1.662841e+002 -8.042040e+000  7.037338e+001
5.3569375000e+009 -1.731022e+000 -7.285443e+000 -3.414583e+001 -4.470573e+001  2.687422e+001  1.659534e+002 -7.892546e+000  7.144106e+001
5.3570625000e+009 -1.730396e+000 -7.361259e+000 -3.451497e+001 -4.635079e+001  2.672874e+001  1.657838e+002 -8.069236e+000  6.922961e+001
5.3571875000e+009 -1.677853e+000 -7.274314e+000 -3.448933e+001 -4.637405e+001  2.684530e+001  1.655518e+002 -8.012599e+000  7.080898e+001
5.3573125000e+009 -1.656676e+000 -7.888083e+000 -3.443051e+001 -4.484525e+001  2.679293e+001  1.653062e+002 -8.087389e+000  7.093622e+001
5.3574375000e+009 -1.617322e+000 -7.261076e+000 -3.407706e+001 -4.657484e+001  2.674597e+001  1.655175e+002 -8.099151e+000  7.023422e+001
5.3575625000e+009 -1.614479e+000 -7.822615e+000 -3.416064e+001 -4.896006e+001  2.680421e+001  1.648976e+002 -8.060909e+000  7.170280e+001
5.3576875000e+009 -1.594098e+000 -7.594974e+000 -3.439827e+001 -4.806111e+001  2.674959e+001  1.646922e+002 -8.102387e+000  7.088499e+001
5.3578125000e+009 -1.538707e+000 -7.874209e+000 -3.402693e+001 -4.762725e+001  2.672480e+001  1.646311e+002 -8.086216e+000  7.059426e+001
5.3579375000e+009 -1.513092e+000 -8.042069e+000 -3.418742e+001 -4.780120e+001  2.673988e+001  1.641615e+002 -8.134849e+000  7.214052e+001
5.3580625000e+009 -1.464998e+000 -8.345735e+000 -3.421457e+001 -4.990959e+001  2.673476e+001  1.640847e+002 -8.108011e+000  7.048608e+001
5.3581875000e+009 -1.439146e+000 -8.064406e+000 -3.386549e+001 -4.563678e+001  2.671907e+001  1.638172e+002 -8.062148e+000  7.148376e+001
5.3583125000e+009 -1.473743e+000 -8.497365e+000 -3.498114e+001 -5.025371e+001  2.673809e+001  1.638332e+002 -8.240537e+000  7.177055e+001
5.3584375000e+009 -1.410723e+000 -8.493068e+000 -3.450648e+001 -4.762844e+001  2.670238e+001  1.633361e+002 -8.238047e+000  7.226421e+001
5.3585625000e+009 -1.377558e+000 -8.580155e+000 -3.437416e+001 -5.274062e+001  2.667915e+001  1.634464e+002 -8.126626e+000  7.064396e+001
5.3586875000e+009 -1.329420e+000 -8.323939e+000 -3.387403e+001 -4.934410e+001  2.666465e+001  1.629670e+002 -8.264637e+000  7.245816e+001
5.3588125000e+009 -1.316878e+000 -8.669090e+000 -3.400063e+001 -4.808900e+001  2.667459e+001  1.628303e+002 -8.187689e+000  7.267809e+001
5.3589375000e+009 -1.289511e+000 -8.788961e+000 -3.371143e+001 -4.532890e+001  2.664565e+001  1.626665e+002 -8.204042e+000  7.242692e+001
5.3590625000e+009 -1.228361e+000 -8.365840e+000 -3.438112e+001 -4.819071e+001  2.664213e+001  1.623470e+002 -8.235706e+000  7.241944e+001
5.3591875000e+009 -1.179523e+000 -9.057348e+000 -3.394394e+001 -4.954002e+001  2.661212e+001  1.621994e+002 -8.270348e+000  7.185678e+001
5.3593125000e+009 -1.215243e+000 -8.707876e+000 -3.398019e+001 -4.550302e+001  2.661005e+001  1.622459e+002 -8.294335e+000  7.292815e+001
5.3594375000e+009 -1.176256e+000 -9.086111e+000 -3.417746e+001 -4.923064e+001  2.657878e+001  1.618070e+002 -8.375016e+000  7.302671e+001
5.3595625000e+009 -1.114738e+000 -9.078822e+000 -3.434248e+001 -4.956586e+001  2.657496e+001  1.616625e+002 -8.378161e+000  7.284603e+001
5.3596875000e+009 -1.150196e+000 -8.935133e+000 -3.459290e+001 -4.701339e+001  2.656049e+001  1.610573e+002 -8.367911e+000  7.212606e+001
5.3598125000e+009 -1.061883e+000 -9.385722e+000 -3.389492e+001 -4.762722e+001  2.656678e+001  1.609332e+002 -8.367650e+000  7.382556e+001
5.3599375000e+009 -1.028654e+000 -9.564203e+000 -3.395090e+001 -4.912889e+001  2.659522e+001  1.609731e+002 -8.287817e+000  7.343121e+001
5.3600625000e+009 -9.730991e-001 -9.593682e+000 -3.404803e+001 -4.814975e+001  2.655493e+001  1.607539e+002 -8.329912e+000  7.420584e+001
5.3601875000e+009 -9.774666e-001 -9.793751e+000 -3.406676e+001 -5.027455e+001  2.657279e+001  1.605951e+002 -8.314755e+000  7.342015e+001
5.3603125000e+009 -9.387972e-001 -9.878987e+000 -3.352743e+001 -5.092598e+001  2.652299e+001  1.605151e+002 -8.306170e+000  7.416776e+001
5.3604375000e+009 -9.846413e-001 -9.579521e+000 -3.415868e+001 -4.680176e+001  2.657388e+001  1.601256e+002 -8.367584e+000  7.286209e+001
5.3605625000e+009 -8.807613e-001 -9.773191e+000 -3.447407e+001 -4.742789e+001  2.655110e+001  1.602388e+002 -8.398209e+000  7.384717e+001
5.3606875000e+009 -8.501299e-001 -9.958245e+000 -3.350802e+001 -5.160891e+001  2.652663e+001  1.599436e+002 -8.367641e+000  7.449726e+001
5.3608125000e+009 -8.525543e-001 -1.012632e+001 -3.383011e+001 -4.881291e+001  2.655679e+001  1.595494e+002 -8.358338e+000  7.396150e+001
5.3609375000e+009 -8.430319e-001 -1.021048e+001 -3.402003e+001 -5.368635e+001  2.653977e+001  1.592942e+002 -8.315971e+000  7.298717e+001
5.3610625000e+009 -8.084286e-001 -9.986396e+000 -3.395796e+001 -5.025824e+001  2.657077e+001  1.591546e+002 -8.261526e+000  7.360741e+001
5.3611875000e+009 -7.705008e-001 -1.009387e+001 -3.381442e+001 -5.075648e+001  2.657448e+001  1.588445e+002 -8.283351e+000  7.370824e+001
5.3613125000e+009 -7.645043e-001 -1.019531e+001 -3.380749e+001 -4.857182e+001  2.652683e+001  1.587394e+002 -8.297698e+000  7.381236e+001
5.3614375000e+009 -6.855942e-001 -1.039276e+001 -3.369276e+001 -5.349738e+001  2.651831e+001  1.585683e+002 -8.226370e+000  7.419671e+001
5.3615625000e+009 -6.905947e-001 -1.038377e+001 -3.356404e+001 -5.225645e+001  2.646181e+001  1.583548e+002 -8.335411e+000  7.440898e+001
5.3616875000e+009 -6.511042e-001 -1.039312e+001 -3.391433e+001 -5.346237e+001  2.639538e+001  1.582753e+002 -8.591293e+000  7.504429e+001
5.3618125000e+009 -6.172378e-001 -1.035575e+001 -3.387231e+001 -5.096105e+001  2.643211e+001  1.581336e+002 -8.525477e+000  7.600762e+001
5.3619375000e+009 -6.260719e-001 -1.035894e+001 -3.404779e+001 -5.083369e+001  2.649267e+001  1.574734e+002 -8.400308e+000  7.463892e+001
5.3620625000e+009 -6.199983e-001 -1.049449e+001 -3.409687e+001 -4.894635e+001  2.650313e+001  1.575348e+002 -8.454895e+000  7.442690e+001
5.3621875000e+009 -5.583367e-001 -1.057188e+001 -3.386597e+001 -5.432384e+001  2.639009e+001  1.572017e+002 -8.543219e+000  7.506534e+001
5.3623125000e+009 -5.471403e-001 -1.057354e+001 -3.309398e+001 -4.608409e+001  2.655337e+001  1.570578e+002 -8.120553e+000  7.603616e+001
5.3624375000e+009 -5.286844e-001 -1.077357e+001 -3.357567e+001 -5.000006e+001  2.633372e+001  1.569360e+002 -8.536898e+000  7.660898e+001
5.3625625000e+009 -4.940296e-001 -1.085703e+001 -3.337197e+001 -5.102697e+001  2.634059e+001  1.565307e+002 -8.522934e+000  7.614207e+001
5.3626875000e+009 -4.761542e-001 -1.088890e+001 -3.372516e+001 -4.993532e+001  2.645910e+001  1.569463e+002 -8.294606e+000  7.625317e+001
5.3628125000e+009 -4.647816e-001 -1.091629e+001 -3.391687e+001 -5.234996e+001  2.635510e+001  1.564440e+002 -8.490532e+000  7.610513e+001
5.3629375000e+009 -4.226531e-001 -1.077043e+001 -3.350162e+001 -5.162020e+001  2.640531e+001  1.566077e+002 -8.359268e+000  7.643580e+001
5.3630625000e+009 -4.242284e-001 -1.094747e+001 -3.312923e+001 -5.175373e+001  2.638821e+001  1.559760e+002 -8.386577e+000  7.636103e+001
5.3631875000e+009 -3.822832e-001 -1.093633e+001 -3.337715e+001 -5.044035e+001  2.640005e+001  1.559804e+002 -8.434815e+000  7.674850e+001
5.3633125000e+009 -3.538876e-001 -1.067265e+001 -3.375674e+001 -5.137558e+001  2.631997e+001  1.553704e+002 -8.668698e+000  7.701995e+001
5.3634375000e+009 -3.249986e-001 -1.080085e+001 -3.334185e+001 -5.316667e+001  2.650714e+001  1.556460e+002 -8.271932e+000  7.662006e+001
5.3635625000e+009 -3.120999e-001 -1.102252e+001 -3.371783e+001 -5.574386e+001  2.627948e+001  1.553113e+002 -8.631284e+000  7.747492e+001
5.3636875000e+009 -2.966060e-001 -1.092321e+001 -3.342728e+001 -5.218932e+001  2.619387e+001  1.555103e+002 -8.687604e+000  7.856786e+001
5.3638125000e+009 -2.688881e-001 -1.117011e+001 -3.340546e+001 -5.176910e+001  2.637271e+001  1.549928e+002 -8.512964e+000  7.794999e+001
5.3639375000e+009 -2.569057e-001 -1.103871e+001 -3.361324e+001 -5.563167e+001  2.633789e+001  1.545738e+002 -8.654863e+000  7.709747e+001
5.3640625000e+009 -2.126952e-001 -1.093281e+001 -3.327157e+001 -5.196266e+001  2.619217e+001  1.547475e+002 -8.696909e+000  7.883751e+001
5.3641875000e+009 -2.006934e-001 -1.114708e+001 -3.328859e+001 -5.446466e+001  2.627907e+001  1.544198e+002 -8.609958e+000  7.807013e+001
5.3643125000e+009 -1.842041e-001 -1.105618e+001 -3.324255e+001 -5.403751e+001  2.621123e+001  1.538223e+002 -8.764005e+000  7.844064e+001
5.3644375000e+009 -1.666217e-001 -1.104983e+001 -3.377674e+001 -5.799774e+001  2.632274e+001  1.540110e+002 -8.714356e+000  7.787505e+001
5.3645625000e+009 -1.277549e-001 -1.098402e+001 -3.353924e+001 -5.426931e+001  2.635437e+001  1.539065e+002 -8.620844e+000  7.902953e+001
5.3646875000e+009 -1.165013e-001 -1.115731e+001 -3.357392e+001 -5.944233e+001  2.632295e+001  1.536903e+002 -8.696243e+000  7.808292e+001
5.3648125000e+009 -1.200789e-001 -1.124212e+001 -3.400095e+001 -5.803884e+001  2.624024e+001  1.533679e+002 -8.844761e+000  7.850558e+001
5.3649375000e+009 -8.539593e-002 -1.122016e+001 -3.347942e+001 -5.685552e+001  2.629229e+001  1.536974e+002 -8.689401e+000  7.923553e+001
5.3650625000e+009 -1.862803e-002 -1.138165e+001 -3.286490e+001 -5.579286e+001  2.628086e+001  1.528488e+002 -8.661460e+000  7.928558e+001
5.3651875000e+009 -3.775181e-002 -1.139287e+001 -3.333064e+001 -5.782320e+001  2.614235e+001  1.528064e+002 -8.834753e+000  7.932129e+001
5.3653125000e+009 -2.282350e-002 -1.112558e+001 -3.346315e+001 -5.693714e+001  2.622219e+001  1.527856e+002 -8.824406e+000  7.991946e+001
5.3654375000e+009  3.765013e-002 -1.145701e+001 -3.311590e+001 -5.713718e+001  2.620905e+001  1.527801e+002 -8.772467e+000  8.015318e+001
5.3655625000e+009 -3.295695e-002 -1.134183e+001 -3.381567e+001 -5.677688e+001  2.607369e+001  1.518455e+002 -9.078084e+000  8.061930e+001
5.3656875000e+009  9.495430e-002 -1.141274e+001 -3.317431e+001 -5.364890e+001  2.634092e+001  1.527356e+002 -8.613913e+000  8.112006e+001
5.3658125000e+009  6.613379e-002 -1.142435e+001 -3.342236e+001 -5.539470e+001  2.621454e+001  1.518963e+002 -8.896233e+000  8.086698e+001
5.3659375000e+009  4.515500e-002 -1.138160e+001 -3.379433e+001 -5.749414e+001  2.619440e+001  1.517290e+002 -8.913905e+000  8.093768e+001
5.3660625000e+009  6.891072e-002 -1.132068e+001 -3.396097e+001 -5.482018e+001  2.621770e+001  1.516544e+002 -8.949670e+000  8.176286e+001
5.3661875000e+009  1.476832e-001 -1.146409e+001 -3.385855e+001 -5.096245e+001  2.622915e+001  1.521451e+002 -8.888509e+000  8.306226e+001
5.3663125000e+009  1.174702e-001 -1.160089e+001 -3.276848e+001 -5.603475e+001  2.618652e+001  1.509270e+002 -8.786504e+000  8.135748e+001
5.3664375000e+009  1.349033e-001 -1.163393e+001 -3.332455e+001 -5.727360e+001  2.619279e+001  1.516194e+002 -8.832771e+000  8.217825e+001
5.3665625000e+009  2.287696e-001 -1.164633e+001 -3.282348e+001 -5.759087e+001  2.617155e+001  1.513986e+002 -8.830911e+000  8.219755e+001
5.3666875000e+009  1.595372e-001 -1.183789e+001 -3.376575e+001 -5.993333e+001  2.609593e+001  1.501739e+002 -9.063069e+000  8.168559e+001
5.3668125000e+009  2.279780e-001 -1.168921e+001 -3.352019e+001 -5.559286e+001  2.616250e+001  1.507480e+002 -8.973236e+000  8.325127e+001
5.3669375000e+009  2.501541e-001 -1.155521e+001 -3.325273e+001 -5.717883e+001  2.611065e+001  1.506618e+002 -8.905769e+000  8.312248e+001
5.3670625000e+009  2.710745e-001 -1.190950e+001 -3.322810e+001 -5.551692e+001  2.608937e+001  1.500777e+002 -9.002087e+000  8.344510e+001
5.3671875000e+009  3.011081e-001 -1.155324e+001 -3.349478e+001 -5.906997e+001  2.607821e+001  1.504193e+002 -8.952888e+000  8.323415e+001
5.3673125000e+009  2.874947e-001 -1.184255e+001 -3.353433e+001 -5.940172e+001  2.608342e+001  1.493679e+002 -9.134560e+000  8.341347e+001
5.3674375000e+009  2.677897e-001 -1.236143e+001 -3.275983e+001 -6.257400e+001  2.604261e+001  1.490132e+002 -9.019968e+000  8.286021e+001
5.3675625000e+009  2.890943e-001 -1.175194e+001 -3.328981e+001 -5.670452e+001  2.610988e+001  1.495218e+002 -8.984993e+000  8.418008e+001
5.3676875000e+009  4.086481e-001 -1.178556e+001 -3.261267e+001 -5.699999e+001  2.614412e+001  1.495821e+002 -8.886661e+000  8.422464e+001
5.3678125000e+009  2.649423e-001 -1.238851e+001 -3.345180e+001 -6.210124e+001  2.606876e+001  1.497296e+002 -8.991075e+000  8.396824e+001
5.3679375000e+009  2.955421e-001 -1.247392e+001 -3.341965e+001 -6.237196e+001  2.605891e+001  1.497620e+002 -9.085022e+000  8.468183e+001
5.3680625000e+009  4.231189e-001 -1.180434e+001 -3.388986e+001 -5.662573e+001  2.616420e+001  1.493784e+002 -9.098202e+000  8.559561e+001
5.3681875000e+009  4.126603e-001 -1.189703e+001 -3.331507e+001 -6.040125e+001  2.601442e+001  1.478773e+002 -9.139292e+000  8.457496e+001
5.3683125000e+009  3.783719e-001 -1.266202e+001 -3.277201e+001 -6.109378e+001  2.606475e+001  1.490254e+002 -9.015304e+000  8.487081e+001
5.3684375000e+009  4.901747e-001 -1.236254e+001 -3.330091e+001 -5.575069e+001  2.608362e+001  1.484160e+002 -9.025108e+000  8.594324e+001
5.3685625000e+009  4.646585e-001 -1.154584e+001 -3.318461e+001 -5.730856e+001  2.598585e+001  1.474055e+002 -9.124434e+000  8.593219e+001
5.3686875000e+009  4.590401e-001 -1.264376e+001 -3.331722e+001 -6.178860e+001  2.600028e+001  1.480083e+002 -9.153804e+000  8.598623e+001
5.3688125000e+009  5.597394e-001 -1.234454e+001 -3.296965e+001 -6.107145e+001  2.605332e+001  1.475774e+002 -9.098503e+000  8.601051e+001
5.3689375000e+009  5.571419e-001 -1.187932e+001 -3.340334e+001 -5.864180e+001  2.603406e+001  1.475206e+002 -9.170278e+000  8.660608e+001
5.3690625000e+009  5.504077e-001 -1.230333e+001 -3.296449e+001 -6.238403e+001  2.603457e+001  1.475498e+002 -9.108916e+000  8.628562e+001
5.3691875000e+009  5.510989e-001 -1.180299e+001 -3.352551e+001 -5.804279e+001  2.601581e+001  1.478943e+002 -9.173508e+000  8.775363e+001
5.3693125000e+009  5.159649e-001 -1.281993e+001 -3.309549e+001 -5.967788e+001  2.600827e+001  1.465072e+002 -9.129730e+000  8.686126e+001
5.3694375000e+009  5.896751e-001 -1.284268e+001 -3.275857e+001 -5.844436e+001  2.596343e+001  1.475360e+002 -9.092083e+000  8.825720e+001
5.3695625000e+009  6.039562e-001 -1.243618e+001 -3.259573e+001 -5.894095e+001  2.596946e+001  1.469590e+002 -9.049758e+000  8.810326e+001
5.3696875000e+009  6.046265e-001 -1.295232e+001 -3.304237e+001 -5.946830e+001  2.595341e+001  1.469423e+002 -9.087164e+000  8.822307e+001
5.3698125000e+009  6.671759e-001 -1.302587e+001 -3.295226e+001 -6.153612e+001  2.596613e+001  1.471517e+002 -9.185783e+000  8.825941e+001
5.3699375000e+009  6.905206e-001 -1.270333e+001 -3.357972e+001 -5.832391e+001  2.594544e+001  1.465963e+002 -9.163868e+000  8.934022e+001
5.3700625000e+009  6.070328e-001 -1.403569e+001 -3.280112e+001 -6.176736e+001  2.590051e+001  1.460266e+002 -9.198445e+000  8.829443e+001
5.3701875000e+009  6.683826e-001 -1.341902e+001 -3.309768e+001 -6.558771e+001  2.591848e+001  1.464934e+002 -9.189643e+000  8.838937e+001
5.3703125000e+009  7.050768e-001 -1.392381e+001 -3.264308e+001 -6.209992e+001  2.591466e+001  1.458100e+002 -9.096197e+000  8.873737e+001
5.3704375000e+009  7.530546e-001 -1.367463e+001 -3.275121e+001 -6.153458e+001  2.592093e+001  1.458268e+002 -9.138621e+000  8.937404e+001
5.3705625000e+009  7.006297e-001 -1.232897e+001 -3.327520e+001 -5.928183e+001  2.588000e+001  1.457753e+002 -9.133553e+000  9.015848e+001
5.3706875000e+009  8.111251e-001 -1.305550e+001 -3.288834e+001 -6.015533e+001  2.593422e+001  1.454447e+002 -9.089620e+000  9.000502e+001
5.3708125000e+009  7.888581e-001 -1.367557e+001 -3.310158e+001 -6.089365e+001  2.595392e+001  1.453093e+002 -9.164099e+000  9.024612e+001
5.3709375000e+009  7.567350e-001 -1.304660e+001 -3.284165e+001 -6.029118e+001  2.590690e+001  1.456438e+002 -9.082200e+000  9.020721e+001
5.3710625000e+009  7.894354e-001 -1.337927e+001 -3.335419e+001 -6.208192e+001  2.585527e+001  1.453819e+002 -9.241398e+000  9.140646e+001
5.3711875000e+009  8.537679e-001 -1.371395e+001 -3.289972e+001 -6.635818e+001  2.593356e+001  1.447231e+002 -9.176356e+000  9.002596e+001
5.3713125000e+009  8.054463e-001 -1.521050e+001 -3.256837e+001 -6.716320e+001  2.587589e+001  1.446516e+002 -9.194138e+000  9.018790e+001
5.3714375000e+009  8.161549e-001 -1.319006e+001 -3.272637e+001 -5.812512e+001  2.592207e+001  1.443752e+002 -9.017450e+000  9.169827e+001
5.3715625000e+009  8.277423e-001 -1.385574e+001 -3.346887e+001 -6.784294e+001  2.584898e+001  1.438612e+002 -9.383925e+000  9.083984e+001
5.3716875000e+009  8.700066e-001 -1.507554e+001 -3.269715e+001 -6.586903e+001  2.586118e+001  1.438873e+002 -9.196802e+000  9.115079e+001
5.3718125000e+009  8.352531e-001 -1.346628e+001 -3.292442e+001 -6.127002e+001  2.582405e+001  1.437926e+002 -9.249377e+000  9.239237e+001
5.3719375000e+009  9.296824e-001 -1.385118e+001 -3.295863e+001 -6.294283e+001  2.587844e+001  1.433306e+002 -9.148437e+000  9.205247e+001
5.3720625000e+009  8.724802e-001 -1.481952e+001 -3.250165e+001 -6.737035e+001  2.581882e+001  1.431835e+002 -9.249950e+000  9.146108e+001
5.3721875000e+009  8.632894e-001 -1.364026e+001 -3.318882e+001 -6.638886e+001  2.576398e+001  1.438640e+002 -9.256678e+000  9.238638e+001
5.3723125000e+009  9.276511e-001 -1.501179e+001 -3.240048e+001 -6.915892e+001  2.578413e+001  1.432926e+002 -9.243512e+000  9.141792e+001
5.3724375000e+009  9.579903e-001 -1.434047e+001 -3.272529e+001 -6.489600e+001  2.583479e+001  1.428543e+002 -9.113622e+000  9.275891e+001
5.3725625000e+009  9.517367e-001 -1.303072e+001 -3.255854e+001 -6.428706e+001  2.580662e+001  1.436056e+002 -9.243199e+000  9.290076e+001
5.3726875000e+009  9.908244e-001 -1.532543e+001 -3.301429e+001 -6.635015e+001  2.575655e+001  1.426596e+002 -9.322022e+000  9.361656e+001
5.3728125000e+009  9.581800e-001 -1.445229e+001 -3.277888e+001 -6.688328e+001  2.574340e+001  1.430786e+002 -9.219050e+000  9.344158e+001
5.3729375000e+009  8.588056e-001 -1.374654e+001 -3.298024e+001 -6.148064e+001  2.575377e+001  1.429652e+002 -9.138991e+000  9.459161e+001
5.3730625000e+009  1.162617e+000 -1.461541e+001 -3.236572e+001 -6.647694e+001  2.573995e+001  1.428939e+002 -9.214565e+000  9.374940e+001
5.3731875000e+009  1.015115e+000 -1.547845e+001 -3.316181e+001 -6.397603e+001  2.571605e+001  1.418367e+002 -9.239366e+000  9.470537e+001
5.3733125000e+009  8.350750e-001 -1.345090e+001 -3.314723e+001 -6.775194e+001  2.574417e+001  1.425255e+002 -9.301226e+000  9.458640e+001
5.3734375000e+009  9.264923e-001 -1.378049e+001 -3.335469e+001 -6.694090e+001  2.566690e+001  1.420297e+002 -9.349337e+000  9.498425e+001
5.3735625000e+009  1.087983e+000 -1.510453e+001 -3.299284e+001 -6.760649e+001  2.567406e+001  1.416656e+002 -9.251832e+000  9.516129e+001
5.3736875000e+009  9.393697e-001 -1.454943e+001 -3.324076e+001 -6.807372e+001  2.563086e+001  1.419246e+002 -9.377069e+000  9.545985e+001
5.3738125000e+009  1.077946e+000 -1.568654e+001 -3.249817e+001 -6.807934e+001  2.567653e+001  1.414046e+002 -9.196927e+000  9.513095e+001
5.3739375000e+009  1.083113e+000 -1.559424e+001 -3.292749e+001 -7.285043e+001  2.566109e+001  1.413688e+002 -9.406027e+000  9.529646e+001
5.3740625000e+009  1.057781e+000 -1.427452e+001 -3.315743e+001 -6.272099e+001  2.558885e+001  1.413510e+002 -9.269728e+000  9.700468e+001
5.3741875000e+009  1.133149e+000 -1.468683e+001 -3.297028e+001 -6.463826e+001  2.560481e+001  1.408993e+002 -9.264265e+000  9.660126e+001
5.3743125000e+009  1.130243e+000 -1.508851e+001 -3.310112e+001 -6.503241e+001  2.562843e+001  1.408733e+002 -9.180474e+000  9.717953e+001
5.3744375000e+009  1.076796e+000 -1.514729e+001 -3.277152e+001 -7.199632e+001  2.557702e+001  1.406364e+002 -9.354986e+000  9.654121e+001
5.3745625000e+009  1.082221e+000 -1.434226e+001 -3.255573e+001 -6.317329e+001  2.568004e+001  1.407192e+002 -9.106814e+000  9.788979e+001
5.3746875000e+009  1.142582e+000 -1.452078e+001 -3.260081e+001 -6.854372e+001  2.556888e+001  1.406226e+002 -9.271334e+000  9.685583e+001
5.3748125000e+009  1.041820e+000 -1.380212e+001 -3.321675e+001 -6.429430e+001  2.556394e+001  1.405447e+002 -9.230577e+000  9.817879e+001
5.3749375000e+009  1.138704e+000 -1.506127e+001 -3.288584e+001 -6.874311e+001  2.554785e+001  1.400639e+002 -9.252112e+000  9.772665e+001
5.3750625000e+009  1.193578e+000 -1.589370e+001 -3.244687e+001 -6.743651e+001  2.556941e+001  1.398240e+002 -9.252852e+000  9.818597e+001
5.3751875000e+009  1.092116e+000 -1.491539e+001 -3.253384e+001 -6.857436e+001  2.551483e+001  1.398642e+002 -9.263807e+000  9.738438e+001
5.3753125000e+009  1.178870e+000 -1.527390e+001 -3.307266e+001 -6.862902e+001  2.554122e+001  1.399015e+002 -9.336097e+000  9.933099e+001
5.3754375000e+009  1.283669e+000 -1.649233e+001 -3.264765e+001 -6.986664e+001  2.549794e+001  1.394030e+002 -9.286526e+000  9.886875e+001
5.3755625000e+009  1.159003e+000 -1.568240e+001 -3.338010e+001 -7.277050e+001  2.545794e+001  1.392951e+002 -9.592572e+000  1.000043e+002
5.3756875000e+009  1.382604e+000 -1.607139e+001 -3.247542e+001 -6.461317e+001  2.549588e+001  1.388272e+002 -9.362128e+000  1.000145e+002
5.3758125000e+009  1.107572e+000 -1.588544e+001 -3.290011e+001 -6.998103e+001  2.544243e+001  1.390979e+002 -9.450515e+000  9.980698e+001
5.3759375000e+009  1.175824e+000 -1.584124e+001 -3.270808e+001 -6.823756e+001  2.544012e+001  1.391011e+002 -9.398781e+000  1.000238e+002
5.3760625000e+009  1.129057e+000 -1.543433e+001 -3.305172e+001 -6.966605e+001  2.540726e+001  1.391022e+002 -9.489205e+000  1.007751e+002
5.3761875000e+009  1.268810e+000 -1.619406e+001 -3.234961e+001 -6.631934e+001  2.541778e+001  1.387007e+002 -9.318504e+000  1.009026e+002
5.3763125000e+009  1.022959e+000 -1.593857e+001 -3.306988e+001 -6.902135e+001  2.534123e+001  1.383890e+002 -9.537358e+000  1.017527e+002
5.3764375000e+009  1.110909e+000 -1.659450e+001 -3.240495e+001 -7.215914e+001  2.532325e+001  1.381869e+002 -9.577920e+000  1.012748e+002
5.3765625000e+009  1.332117e+000 -1.800642e+001 -3.249870e+001 -7.521629e+001  2.534053e+001  1.377587e+002 -9.684106e+000  1.005432e+002
5.3766875000e+009  1.167987e+000 -1.647511e+001 -3.315165e+001 -7.114198e+001  2.529974e+001  1.378762e+002 -9.673322e+000  1.025678e+002
5.3768125000e+009  1.237955e+000 -1.757252e+001 -3.255909e+001 -7.000513e+001  2.530825e+001  1.377905e+002 -9.582990e+000  1.023303e+002
5.3769375000e+009  1.299949e+000 -1.721464e+001 -3.276931e+001 -7.194830e+001  2.526944e+001  1.376031e+002 -9.601943e+000  1.029193e+002
5.3770625000e+009  1.204127e+000 -1.819080e+001 -3.266870e+001 -7.415362e+001  2.520428e+001  1.371635e+002 -9.805477e+000  1.023142e+002
5.3771875000e+009  1.226088e+000 -1.790556e+001 -3.265616e+001 -7.217920e+001  2.520820e+001  1.372866e+002 -9.814868e+000  1.034587e+002
5.3773125000e+009  1.194037e+000 -1.849531e+001 -3.293565e+001 -7.250871e+001  2.516546e+001  1.370220e+002 -9.802473e+000  1.039311e+002
5.3774375000e+009  1.317598e+000 -1.815582e+001 -3.244167e+001 -7.283522e+001  2.521794e+001  1.366901e+002 -9.809884e+000  1.028180e+002
5.3775625000e+009  1.341461e+000 -1.865928e+001 -3.257950e+001 -7.476546e+001  2.514566e+001  1.367757e+002 -9.924341e+000  1.037660e+002
5.3776875000e+009  1.200010e+000 -1.868518e+001 -3.257202e+001 -7.384222e+001  2.509293e+001  1.364973e+002 -9.945553e+000  1.043275e+002
5.3778125000e+009  1.161223e+000 -1.878173e+001 -3.219644e+001 -7.440813e+001  2.510075e+001  1.362776e+002 -9.927232e+000  1.034022e+002
5.3779375000e+009  1.223262e+000 -1.919529e+001 -3.219226e+001 -7.692339e+001  2.500935e+001  1.363082e+002 -9.983236e+000  1.053315e+002
5.3780625000e+009  1.212226e+000 -1.968751e+001 -3.257230e+001 -7.068619e+001  2.506720e+001  1.362472e+002 -9.790198e+000  1.051574e+002
5.3781875000e+009  1.193947e+000 -1.935239e+001 -3.252505e+001 -7.705872e+001  2.504710e+001  1.355221e+002 -1.019126e+001  1.046111e+002
5.3783125000e+009  1.275082e+000 -2.016065e+001 -3.256105e+001 -7.524279e+001  2.499481e+001  1.358519e+002 -1.002079e+001  1.057039e+002
5.3784375000e+009  1.161398e+000 -1.952245e+001 -3.275026e+001 -7.948398e+001  2.503387e+001  1.355020e+002 -1.023924e+001  1.054776e+002
5.3785625000e+009  1.245708e+000 -2.056273e+001 -3.268676e+001 -7.520999e+001  2.497096e+001  1.352707e+002 -1.008121e+001  1.061947e+002
5.3786875000e+009  1.204599e+000 -1.992714e+001 -3.276288e+001 -7.815955e+001  2.494664e+001  1.355871e+002 -1.012459e+001  1.070274e+002
5.3788125000e+009  1.432484e+000 -2.050104e+001 -3.229652e+001 -7.548130e+001  2.490052e+001  1.347668e+002 -1.013385e+001  1.069654e+002
5.3789375000e+009  1.291430e+000 -2.063328e+001 -3.253737e+001 -7.760353e+001  2.488309e+001  1.347908e+002 -1.019148e+001  1.074291e+002
5.3790625000e+009  1.264723e+000 -2.050318e+001 -3.281213e+001 -7.717015e+001  2.482436e+001  1.350536e+002 -1.019603e+001  1.082227e+002
5.3791875000e+009  1.317216e+000 -2.012655e+001 -3.255494e+001 -8.065987e+001  2.478778e+001  1.345838e+002 -1.040225e+001  1.088389e+002
5.3793125000e+009  1.273345e+000 -2.066776e+001 -3.256865e+001 -7.750570e+001  2.490536e+001  1.344431e+002 -1.028707e+001  1.072038e+002
5.3794375000e+009  1.277707e+000 -2.113353e+001 -3.212607e+001 -7.495127e+001  2.478671e+001  1.342239e+002 -1.026877e+001  1.080050e+002
5.3795625000e+009  1.323533e+000 -2.117932e+001 -3.255322e+001 -7.637759e+001  2.482262e+001  1.340058e+002 -1.034726e+001  1.083662e+002
5.3796875000e+009  1.410387e+000 -2.139593e+001 -3.244595e+001 -7.752494e+001  2.479589e+001  1.337522e+002 -1.042029e+001  1.087509e+002
5.3798125000e+009  1.340086e+000 -2.185906e+001 -3.266768e+001 -8.049755e+001  2.472696e+001  1.339264e+002 -1.042982e+001  1.098502e+002
5.3799375000e+009  1.300660e+000 -2.156084e+001 -3.272715e+001 -7.616489e+001  2.468937e+001  1.339136e+002 -1.030848e+001  1.101686e+002
5.3800625000e+009  1.348553e+000 -2.190673e+001 -3.268539e+001 -8.022636e+001  2.470662e+001  1.335389e+002 -1.050064e+001  1.099137e+002
5.3801875000e+009  1.374613e+000 -2.222163e+001 -3.204171e+001 -7.941402e+001  2.468676e+001  1.335843e+002 -1.045922e+001  1.092058e+002
5.3803125000e+009  1.434502e+000 -2.204149e+001 -3.306617e+001 -8.102167e+001  2.467103e+001  1.331506e+002 -1.055565e+001  1.112975e+002
5.3804375000e+009  1.388257e+000 -2.299256e+001 -3.222110e+001 -7.788923e+001  2.473600e+001  1.336426e+002 -1.032487e+001  1.092617e+002
5.3805625000e+009  1.240789e+000 -2.300622e+001 -3.251397e+001 -7.858710e+001  2.460699e+001  1.332178e+002 -1.048319e+001  1.108572e+002
5.3806875000e+009  1.489198e+000 -2.296306e+001 -3.149946e+001 -7.934216e+001  2.458144e+001  1.326642e+002 -1.064276e+001  1.099160e+002
5.3808125000e+009  1.283885e+000 -2.382158e+001 -3.208696e+001 -8.016957e+001  2.464594e+001  1.332894e+002 -1.042303e+001  1.100963e+002
5.3809375000e+009  1.419879e+000 -2.352308e+001 -3.209741e+001 -7.887669e+001  2.459333e+001  1.324404e+002 -1.057631e+001  1.110837e+002
5.3810625000e+009  1.436571e+000 -2.358507e+001 -3.181413e+001 -8.355770e+001  2.458892e+001  1.326907e+002 -1.068224e+001  1.107748e+002
5.3811875000e+009  1.365242e+000 -2.360118e+001 -3.239771e+001 -8.400832e+001  2.463405e+001  1.322695e+002 -1.083377e+001  1.113041e+002
5.3813125000e+009  1.372416e+000 -2.390720e+001 -3.205553e+001 -8.274734e+001  2.450980e+001  1.323311e+002 -1.065271e+001  1.117671e+002
5.3814375000e+009  1.438262e+000 -2.348157e+001 -3.264797e+001 -8.198376e+001  2.451336e+001  1.320124e+002 -1.071521e+001  1.131084e+002
5.3815625000e+009  1.391026e+000 -2.390579e+001 -3.217823e+001 -8.242446e+001  2.462461e+001  1.326139e+002 -1.069362e+001  1.110251e+002
5.3816875000e+009  1.427202e+000 -2.449586e+001 -3.186618e+001 -8.172234e+001  2.446789e+001  1.319547e+002 -1.073854e+001  1.121698e+002
5.3818125000e+009  1.425373e+000 -2.461494e+001 -3.210693e+001 -8.201610e+001  2.443564e+001  1.313482e+002 -1.086202e+001  1.131554e+002
5.3819375000e+009  1.439308e+000 -2.468272e+001 -3.265354e+001 -8.031401e+001  2.450229e+001  1.315602e+002 -1.077794e+001  1.133031e+002
5.3820625000e+009  1.380859e+000 -2.491853e+001 -3.248494e+001 -8.517054e+001  2.438893e+001  1.312842e+002 -1.096270e+001  1.144973e+002
5.3821875000e+009  1.459317e+000 -2.435177e+001 -3.232839e+001 -8.046987e+001  2.439454e+001  1.316308e+002 -1.074540e+001  1.138439e+002
5.3823125000e+009  1.473318e+000 -2.471743e+001 -3.245841e+001 -8.280160e+001  2.443820e+001  1.313146e+002 -1.085346e+001  1.140596e+002
5.3824375000e+009  1.457361e+000 -2.564028e+001 -3.199891e+001 -8.347224e+001  2.434830e+001  1.302774e+002 -1.106452e+001  1.144071e+002
5.3825625000e+009  1.509181e+000 -2.460081e+001 -3.228288e+001 -8.492120e+001  2.432925e+001  1.307233e+002 -1.103189e+001  1.152786e+002
5.3826875000e+009  1.455533e+000 -2.568700e+001 -3.159963e+001 -8.459332e+001  2.423915e+001  1.305372e+002 -1.105364e+001  1.150156e+002
5.3828125000e+009  1.466829e+000 -2.590713e+001 -3.151371e+001 -8.620147e+001  2.429524e+001  1.304770e+002 -1.122173e+001  1.142355e+002
5.3829375000e+009  1.528803e+000 -2.541839e+001 -3.201274e+001 -8.438071e+001  2.421680e+001  1.302793e+002 -1.108297e+001  1.158719e+002
5.3830625000e+009  1.520525e+000 -2.566495e+001 -3.234906e+001 -8.333490e+001  2.426266e+001  1.301431e+002 -1.105876e+001  1.160773e+002
5.3831875000e+009  1.515506e+000 -2.589775e+001 -3.205034e+001 -8.297006e+001  2.425667e+001  1.302401e+002 -1.105709e+001  1.155757e+002
5.3833125000e+009  1.514013e+000 -2.585084e+001 -3.179613e+001 -8.565865e+001  2.414499e+001  1.301247e+002 -1.112922e+001  1.163336e+002
5.3834375000e+009  1.519532e+000 -2.612416e+001 -3.203113e+001 -8.458851e+001  2.412122e+001  1.298733e+002 -1.114958e+001  1.168313e+002
5.3835625000e+009  1.537020e+000 -2.654201e+001 -3.200396e+001 -8.587868e+001  2.421902e+001  1.302816e+002 -1.113448e+001  1.159910e+002
5.3836875000e+009  1.549653e+000 -2.626415e+001 -3.193780e+001 -8.425655e+001  2.405713e+001  1.295906e+002 -1.113627e+001  1.175887e+002
5.3838125000e+009  1.576748e+000 -2.666891e+001 -3.139899e+001 -8.742913e+001  2.412465e+001  1.298222e+002 -1.127788e+001  1.165941e+002
5.3839375000e+009  1.566723e+000 -2.684529e+001 -3.226587e+001 -8.455534e+001  2.402216e+001  1.290056e+002 -1.126630e+001  1.187239e+002
5.3840625000e+009  1.546297e+000 -2.677878e+001 -3.179078e+001 -8.891647e+001  2.401618e+001  1.285881e+002 -1.147805e+001  1.186503e+002
5.3841875000e+009  1.608106e+000 -2.715228e+001 -3.221928e+001 -8.678761e+001  2.403786e+001  1.294828e+002 -1.122205e+001  1.184937e+002
5.3843125000e+009  1.588020e+000 -2.712697e+001 -3.144693e+001 -8.925426e+001  2.393270e+001  1.287196e+002 -1.150578e+001  1.187890e+002
5.3844375000e+009  1.601868e+000 -2.697107e+001 -3.151807e+001 -8.671195e+001  2.406703e+001  1.286552e+002 -1.152730e+001  1.175690e+002
5.3845625000e+009  1.593060e+000 -2.745981e+001 -3.154252e+001 -8.513882e+001  2.394482e+001  1.288784e+002 -1.134499e+001  1.186976e+002
5.3846875000e+009  1.622337e+000 -2.718661e+001 -3.216547e+001 -8.601260e+001  2.383536e+001  1.285567e+002 -1.127762e+001  1.209667e+002
5.3848125000e+009  1.643927e+000 -2.719275e+001 -3.196728e+001 -8.698414e+001  2.397541e+001  1.287030e+002 -1.141135e+001  1.190783e+002
5.3849375000e+009  1.634216e+000 -2.734704e+001 -3.202834e+001 -8.653182e+001  2.387651e+001  1.284510e+002 -1.145298e+001  1.201504e+002
5.3850625000e+009  1.707226e+000 -2.764233e+001 -3.246856e+001 -8.784474e+001  2.392139e+001  1.275736e+002 -1.151139e+001  1.209356e+002
5.3851875000e+009  1.726161e+000 -2.786664e+001 -3.217596e+001 -8.631140e+001  2.387042e+001  1.272515e+002 -1.155261e+001  1.208177e+002
5.3853125000e+009  1.773176e+000 -2.779953e+001 -3.188565e+001 -8.634144e+001  2.377531e+001  1.284235e+002 -1.131723e+001  1.210549e+002
5.3854375000e+009  1.784200e+000 -2.811449e+001 -3.154515e+001 -8.634676e+001  2.373424e+001  1.273437e+002 -1.156417e+001  1.209653e+002
5.3855625000e+009  1.706294e+000 -2.832870e+001 -3.134625e+001 -8.633303e+001  2.386697e+001  1.276892e+002 -1.166038e+001  1.194979e+002
5.3856875000e+009  1.660022e+000 -2.827750e+001 -3.203552e+001 -9.135133e+001  2.369543e+001  1.277980e+002 -1.157454e+001  1.225989e+002
5.3858125000e+009  1.682923e+000 -2.835986e+001 -3.166627e+001 -9.276167e+001  2.372417e+001  1.275452e+002 -1.178145e+001  1.225757e+002
5.3859375000e+009  1.638574e+000 -2.872387e+001 -3.155393e+001 -9.362512e+001  2.367858e+001  1.268279e+002 -1.189964e+001  1.231009e+002
5.3860625000e+009  1.742621e+000 -2.863519e+001 -3.185004e+001 -9.156934e+001  2.365916e+001  1.273995e+002 -1.166128e+001  1.228923e+002
5.3861875000e+009  1.830884e+000 -2.804965e+001 -3.204897e+001 -8.689896e+001  2.371977e+001  1.264347e+002 -1.165900e+001  1.225825e+002
5.3863125000e+009  1.776399e+000 -2.793068e+001 -3.211993e+001 -8.827380e+001  2.371517e+001  1.266348e+002 -1.168531e+001  1.230255e+002
5.3864375000e+009  1.681961e+000 -2.874410e+001 -3.155450e+001 -9.199887e+001  2.365448e+001  1.269030e+002 -1.190153e+001  1.231118e+002
5.3865625000e+009  1.838494e+000 -2.831767e+001 -3.224511e+001 -9.011366e+001  2.362811e+001  1.265281e+002 -1.164787e+001  1.241449e+002
5.3866875000e+009  1.757166e+000 -2.881218e+001 -3.145518e+001 -8.675718e+001  2.351500e+001  1.265706e+002 -1.170760e+001  1.231171e+002
5.3868125000e+009  1.861631e+000 -2.914096e+001 -3.195923e+001 -9.024305e+001  2.349142e+001  1.264573e+002 -1.169202e+001  1.247856e+002
5.3869375000e+009  1.851275e+000 -2.901531e+001 -3.142751e+001 -9.177065e+001  2.352986e+001  1.265622e+002 -1.185962e+001  1.240042e+002
5.3870625000e+009  1.745436e+000 -2.869161e+001 -3.177001e+001 -9.448269e+001  2.354142e+001  1.262938e+002 -1.191931e+001  1.251658e+002
5.3871875000e+009  1.955797e+000 -2.860317e+001 -3.141193e+001 -9.423106e+001  2.344376e+001  1.261601e+002 -1.190230e+001  1.254451e+002
5.3873125000e+009  1.815785e+000 -2.849492e+001 -3.121647e+001 -9.167934e+001  2.344415e+001  1.259140e+002 -1.201053e+001  1.253420e+002
5.3874375000e+009  1.798360e+000 -2.905002e+001 -3.169497e+001 -9.696568e+001  2.349339e+001  1.253681e+002 -1.214378e+001  1.269575e+002
5.3875625000e+009  1.929987e+000 -2.990649e+001 -3.094592e+001 -9.245071e+001  2.334787e+001  1.258786e+002 -1.195924e+001  1.250622e+002
5.3876875000e+009  2.012689e+000 -2.819932e+001 -3.130088e+001 -8.977560e+001  2.354435e+001  1.252843e+002 -1.204927e+001  1.245709e+002
5.3878125000e+009  1.817223e+000 -3.070024e+001 -3.142276e+001 -9.181659e+001  2.340761e+001  1.250247e+002 -1.220416e+001  1.256747e+002
5.3879375000e+009  1.842018e+000 -2.989186e+001 -3.172880e+001 -9.776668e+001  2.324457e+001  1.256383e+002 -1.200911e+001  1.288751e+002
5.3880625000e+009  1.972228e+000 -2.977765e+001 -3.168312e+001 -9.219479e+001  2.328725e+001  1.255622e+002 -1.191420e+001  1.274081e+002
5.3881875000e+009  1.856959e+000 -3.139129e+001 -3.148763e+001 -9.449373e+001  2.324680e+001  1.253236e+002 -1.217523e+001  1.280501e+002
5.3883125000e+009  1.963248e+000 -3.101213e+001 -3.159972e+001 -9.049889e+001  2.310896e+001  1.255684e+002 -1.185074e+001  1.281928e+002
5.3884375000e+009  1.823946e+000 -3.082782e+001 -3.181052e+001 -9.521722e+001  2.327913e+001  1.250616e+002 -1.225583e+001  1.291379e+002
5.3885625000e+009  1.857187e+000 -3.313562e+001 -3.138098e+001 -9.678967e+001  2.317755e+001  1.246373e+002 -1.247416e+001  1.295163e+002
5.3886875000e+009  1.856021e+000 -3.186930e+001 -3.174444e+001 -9.553284e+001  2.316534e+001  1.255316e+002 -1.224250e+001  1.293822e+002
5.3888125000e+009  1.836104e+000 -3.244223e+001 -3.130920e+001 -9.784594e+001  2.319293e+001  1.249039e+002 -1.256373e+001  1.295773e+002
5.3889375000e+009  1.892360e+000 -3.260152e+001 -3.178907e+001 -9.663393e+001  2.305414e+001  1.250561e+002 -1.223898e+001  1.310082e+002
5.3890625000e+009  1.802685e+000 -3.391248e+001 -3.121090e+001 -9.699670e+001  2.298412e+001  1.249816e+002 -1.251049e+001  1.308933e+002
5.3891875000e+009  1.922644e+000 -3.394658e+001 -3.198477e+001 -9.494242e+001  2.304086e+001  1.246139e+002 -1.235690e+001  1.308070e+002
5.3893125000e+009  1.854220e+000 -3.521627e+001 -3.128310e+001 -9.594958e+001  2.291373e+001  1.242299e+002 -1.261133e+001  1.318693e+002
5.3894375000e+009  1.909222e+000 -3.460768e+001 -3.180901e+001 -9.956901e+001  2.292901e+001  1.248442e+002 -1.245287e+001  1.329482e+002
5.3895625000e+009  2.034639e+000 -3.419849e+001 -3.075806e+001 -9.624583e+001  2.289965e+001  1.246885e+002 -1.264534e+001  1.317923e+002
5.3896875000e+009  2.014453e+000 -3.565155e+001 -3.082594e+001 -1.002858e+002  2.290023e+001  1.244807e+002 -1.289099e+001  1.325300e+002
5.3898125000e+009  1.933849e+000 -3.495634e+001 -3.160395e+001 -1.000355e+002  2.285045e+001  1.247775e+002 -1.247502e+001  1.336103e+002
5.3899375000e+009  1.852304e+000 -3.475510e+001 -3.173732e+001 -1.000749e+002  2.282212e+001  1.243776e+002 -1.265929e+001  1.345906e+002
5.3900625000e+009  1.976797e+000 -3.625264e+001 -3.139780e+001 -1.008277e+002  2.285034e+001  1.240523e+002 -1.291807e+001  1.344129e+002
5.3901875000e+009  1.900563e+000 -3.754858e+001 -3.179412e+001 -1.007523e+002  2.272414e+001  1.247013e+002 -1.258675e+001  1.350723e+002
5.3903125000e+009  1.902896e+000 -3.467357e+001 -3.108633e+001 -1.014087e+002  2.284960e+001  1.242314e+002 -1.299312e+001  1.352442e+002
5.3904375000e+009  1.888695e+000 -3.618388e+001 -3.180451e+001 -1.025000e+002  2.280717e+001  1.246134e+002 -1.272280e+001  1.354678e+002
5.3905625000e+009  1.916317e+000 -3.628392e+001 -3.144558e+001 -9.388744e+001  2.270670e+001  1.241649e+002 -1.275965e+001  1.343211e+002
5.3906875000e+009  1.913369e+000 -3.702958e+001 -3.144279e+001 -1.009599e+002  2.279127e+001  1.241647e+002 -1.304956e+001  1.353614e+002
5.3908125000e+009  1.902884e+000 -3.781827e+001 -3.134405e+001 -1.029139e+002  2.269417e+001  1.241918e+002 -1.301028e+001  1.364882e+002
5.3909375000e+009  1.909083e+000 -3.885228e+001 -3.130700e+001 -1.011639e+002  2.258062e+001  1.242318e+002 -1.292415e+001  1.373320e+002
5.3910625000e+009  2.090143e+000 -3.964703e+001 -3.117227e+001 -1.034213e+002  2.257807e+001  1.240469e+002 -1.304774e+001  1.374795e+002
5.3911875000e+009  1.970422e+000 -3.826739e+001 -3.113853e+001 -1.039041e+002  2.261871e+001  1.240567e+002 -1.314889e+001  1.379093e+002
5.3913125000e+009  2.035617e+000 -4.039589e+001 -3.094879e+001 -1.017270e+002  2.252386e+001  1.239784e+002 -1.325758e+001  1.376488e+002
5.3914375000e+009  2.092459e+000 -4.034924e+001 -3.108416e+001 -1.004471e+002  2.256314e+001  1.237123e+002 -1.340212e+001  1.368022e+002
5.3915625000e+009  2.251671e+000 -4.075743e+001 -3.116274e+001 -1.050493e+002  2.249180e+001  1.232537e+002 -1.333326e+001  1.398140e+002
5.3916875000e+009  1.821271e+000 -3.891315e+001 -3.154720e+001 -1.037284e+002  2.260570e+001  1.241698e+002 -1.321461e+001  1.381918e+002
5.3918125000e+009  1.968365e+000 -3.997763e+001 -3.148760e+001 -1.019403e+002  2.240705e+001  1.239294e+002 -1.301528e+001  1.398940e+002
5.3919375000e+009  2.010471e+000 -4.238700e+001 -3.137463e+001 -1.057130e+002  2.245699e+001  1.241098e+002 -1.334343e+001  1.390170e+002
5.3920625000e+009  2.205786e+000 -4.348752e+001 -2.992463e+001 -1.030026e+002  2.222811e+001  1.236726e+002 -1.363599e+001  1.405870e+002
5.3921875000e+009  2.067633e+000 -4.151822e+001 -3.133850e+001 -1.048578e+002  2.230957e+001  1.241615e+002 -1.307989e+001  1.409665e+002
5.3923125000e+009  2.228518e+000 -4.339125e+001 -3.111651e+001 -1.074382e+002  2.229413e+001  1.237941e+002 -1.331536e+001  1.410536e+002
5.3924375000e+009  2.207531e+000 -4.307419e+001 -3.070217e+001 -1.071111e+002  2.228144e+001  1.236306e+002 -1.345809e+001  1.413298e+002
5.3925625000e+009  2.400293e+000 -4.350702e+001 -3.091843e+001 -1.033940e+002  2.227810e+001  1.234211e+002 -1.344358e+001  1.397821e+002
5.3926875000e+009  2.257346e+000 -4.388059e+001 -3.067360e+001 -1.064363e+002  2.221655e+001  1.236690e+002 -1.354232e+001  1.423186e+002
5.3928125000e+009  2.601082e+000 -4.481141e+001 -3.085286e+001 -1.058034e+002  2.211920e+001  1.228435e+002 -1.347201e+001  1.425191e+002
5.3929375000e+009  2.176589e+000 -4.247982e+001 -3.086435e+001 -1.060809e+002  2.225588e+001  1.235752e+002 -1.353485e+001  1.421393e+002
5.3930625000e+009  2.442916e+000 -4.482225e+001 -3.094360e+001 -1.098511e+002  2.213561e+001  1.231807e+002 -1.361796e+001  1.437080e+002
5.3931875000e+009  2.117457e+000 -4.275053e+001 -3.115374e+001 -1.062874e+002  2.225046e+001  1.238795e+002 -1.347324e+001  1.416573e+002
5.3933125000e+009  2.434659e+000 -4.217505e+001 -3.133114e+001 -1.036451e+002  2.218639e+001  1.230345e+002 -1.343578e+001  1.419001e+002
5.3934375000e+009  2.232481e+000 -4.434849e+001 -3.109624e+001 -1.078362e+002  2.212642e+001  1.239002e+002 -1.350560e+001  1.430551e+002
5.3935625000e+009  2.570020e+000 -4.809906e+001 -3.063691e+001 -1.097259e+002  2.195348e+001  1.233820e+002 -1.364228e+001  1.437872e+002
5.3936875000e+009  2.201977e+000 -4.536058e+001 -3.152514e+001 -1.129427e+002  2.204684e+001  1.234729e+002 -1.332433e+001  1.456440e+002
5.3938125000e+009  2.096923e+000 -4.607581e+001 -3.074576e+001 -1.114818e+002  2.205499e+001  1.242407e+002 -1.357609e+001  1.446660e+002
5.3939375000e+009  2.762841e+000 -4.664811e+001 -3.079738e+001 -1.064589e+002  2.191659e+001  1.227841e+002 -1.371447e+001  1.437961e+002
5.3940625000e+009  2.721435e+000 -4.628040e+001 -3.084619e+001 -1.092152e+002  2.192333e+001  1.229128e+002 -1.358196e+001  1.460970e+002
5.3941875000e+009  2.716889e+000 -4.777319e+001 -3.086089e+001 -1.121505e+002  2.188722e+001  1.230714e+002 -1.366381e+001  1.457470e+002
5.3943125000e+009  2.497602e+000 -4.721008e+001 -3.112398e+001 -1.132640e+002  2.189640e+001  1.230475e+002 -1.354693e+001  1.461015e+002
5.3944375000e+009  2.484040e+000 -4.845109e+001 -3.047834e+001 -1.072428e+002  2.187029e+001  1.234076e+002 -1.371422e+001  1.454063e+002
5.3945625000e+009  2.593158e+000 -4.735427e+001 -3.048649e+001 -1.096448e+002  2.187275e+001  1.229964e+002 -1.389149e+001  1.446608e+002
5.3946875000e+009  2.957199e+000 -4.861008e+001 -3.068804e+001 -1.121119e+002  2.173171e+001  1.224829e+002 -1.376675e+001  1.474235e+002
5.3948125000e+009  2.774572e+000 -4.853872e+001 -3.075870e+001 -1.098072e+002  2.181388e+001  1.228884e+002 -1.368911e+001  1.458197e+002
5.3949375000e+009  3.007144e+000 -4.876276e+001 -3.067983e+001 -1.130999e+002  2.170168e+001  1.226425e+002 -1.377811e+001  1.471254e+002
5.3950625000e+009  2.889250e+000 -4.769337e+001 -3.045520e+001 -1.125427e+002  2.181984e+001  1.226374e+002 -1.373799e+001  1.476491e+002
5.3951875000e+009  2.815084e+000 -4.935572e+001 -3.046057e+001 -1.118299e+002  2.165538e+001  1.226324e+002 -1.386837e+001  1.488035e+002
5.3953125000e+009  3.158737e+000 -5.038877e+001 -3.048300e+001 -1.096319e+002  2.164769e+001  1.225683e+002 -1.379965e+001  1.462975e+002
5.3954375000e+009  2.800367e+000 -5.005172e+001 -3.024732e+001 -1.140798e+002  2.168655e+001  1.229816e+002 -1.384315e+001  1.493039e+002
5.3955625000e+009  2.855927e+000 -4.891273e+001 -3.057202e+001 -1.098626e+002  2.166823e+001  1.225093e+002 -1.393362e+001  1.457099e+002
5.3956875000e+009  2.870255e+000 -5.161589e+001 -2.979649e+001 -1.126246e+002  2.154795e+001  1.230369e+002 -1.413043e+001  1.482730e+002
5.3958125000e+009  2.916287e+000 -5.081462e+001 -3.137566e+001 -1.140116e+002  2.157037e+001  1.227777e+002 -1.353069e+001  1.473532e+002
5.3959375000e+009  2.812697e+000 -5.042757e+001 -3.063906e+001 -1.127104e+002  2.161637e+001  1.227855e+002 -1.384963e+001  1.475034e+002
5.3960625000e+009  3.315303e+000 -5.219069e+001 -2.999920e+001 -1.092117e+002  2.145974e+001  1.224694e+002 -1.410537e+001  1.473108e+002
5.3961875000e+009  3.226268e+000 -5.214962e+001 -3.056280e+001 -1.165926e+002  2.145940e+001  1.224958e+002 -1.374493e+001  1.488016e+002
5.3963125000e+009  3.296153e+000 -5.213589e+001 -3.064741e+001 -1.105921e+002  2.143882e+001  1.223822e+002 -1.392462e+001  1.483898e+002
5.3964375000e+009  3.394439e+000 -5.126118e+001 -3.056083e+001 -1.142296e+002  2.152941e+001  1.222488e+002 -1.380209e+001  1.488212e+002
5.3965625000e+009  3.341689e+000 -5.241259e+001 -3.002907e+001 -1.200059e+002  2.142508e+001  1.226143e+002 -1.383860e+001  1.517441e+002
5.3966875000e+009  2.783886e+000 -5.267510e+001 -3.053315e+001 -1.142682e+002  2.150394e+001  1.231784e+002 -1.390760e+001  1.501179e+002
5.3968125000e+009  3.511070e+000 -5.350610e+001 -3.002745e+001 -1.162580e+002  2.132315e+001  1.221674e+002 -1.394371e+001  1.494522e+002
5.3969375000e+009  3.111979e+000 -5.231561e+001 -3.035290e+001 -1.194237e+002  2.140533e+001  1.225782e+002 -1.375139e+001  1.504529e+002
5.3970625000e+009  3.284275e+000 -5.311047e+001 -3.036123e+001 -1.145635e+002  2.132965e+001  1.225314e+002 -1.393900e+001  1.496953e+002
5.3971875000e+009  3.252846e+000 -5.307294e+001 -3.025984e+001 -1.140044e+002  2.138503e+001  1.227701e+002 -1.396640e+001  1.489001e+002
5.3973125000e+009  3.493684e+000 -5.282980e+001 -3.049952e+001 -1.156965e+002  2.129296e+001  1.221963e+002 -1.386039e+001  1.502335e+002
5.3974375000e+009  3.713808e+000 -5.435671e+001 -3.043501e+001 -1.168342e+002  2.128050e+001  1.223335e+002 -1.397377e+001  1.512811e+002
5.3975625000e+009  3.243705e+000 -5.478497e+001 -3.005573e+001 -1.151370e+002  2.131079e+001  1.230162e+002 -1.402432e+001  1.503629e+002
5.3976875000e+009  3.759754e+000 -5.392140e+001 -2.980310e+001 -1.169973e+002  2.121418e+001  1.221816e+002 -1.397183e+001  1.518376e+002
5.3978125000e+009  3.786567e+000 -5.531593e+001 -2.966854e+001 -1.192078e+002  2.117509e+001  1.225548e+002 -1.400297e+001  1.526878e+002
5.3979375000e+009  3.862442e+000 -5.344980e+001 -2.995539e+001 -1.165365e+002  2.120970e+001  1.218070e+002 -1.399033e+001  1.511976e+002
5.3980625000e+009  4.186731e+000 -5.436757e+001 -2.940396e+001 -1.158866e+002  2.108357e+001  1.210995e+002 -1.407796e+001  1.518943e+002
5.3981875000e+009  3.452114e+000 -5.493418e+001 -2.956378e+001 -1.187270e+002  2.122810e+001  1.229554e+002 -1.401040e+001  1.527825e+002
5.3983125000e+009  3.754325e+000 -5.592433e+001 -2.916570e+001 -1.169923e+002  2.111247e+001  1.227873e+002 -1.424043e+001  1.526081e+002
5.3984375000e+009  3.933362e+000 -5.568334e+001 -2.998934e+001 -1.181286e+002  2.107580e+001  1.216401e+002 -1.393760e+001  1.509216e+002
5.3985625000e+009  3.923443e+000 -5.590250e+001 -2.953824e+001 -1.156104e+002  2.107317e+001  1.219845e+002 -1.421454e+001  1.514608e+002
5.3986875000e+009  3.862780e+000 -5.578995e+001 -3.026476e+001 -1.224950e+002  2.113019e+001  1.225397e+002 -1.373710e+001  1.525853e+002
5.3988125000e+009  3.857691e+000 -5.664645e+001 -2.964996e+001 -1.186316e+002  2.103859e+001  1.225355e+002 -1.405152e+001  1.528199e+002
5.3989375000e+009  3.909298e+000 -5.662811e+001 -2.977494e+001 -1.204806e+002  2.102351e+001  1.223046e+002 -1.399541e+001  1.530270e+002
5.3990625000e+009  3.908393e+000 -5.724441e+001 -3.017751e+001 -1.192433e+002  2.102213e+001  1.226104e+002 -1.385295e+001  1.515208e+002
5.3991875000e+009  4.418141e+000 -5.687526e+001 -2.967951e+001 -1.178401e+002  2.088748e+001  1.208962e+002 -1.397833e+001  1.510553e+002
5.3993125000e+009  3.851358e+000 -5.983831e+001 -2.943624e+001 -1.208884e+002  2.094676e+001  1.239324e+002 -1.402053e+001  1.534300e+002
5.3994375000e+009  3.927355e+000 -5.963436e+001 -2.993088e+001 -1.245607e+002  2.094938e+001  1.232286e+002 -1.359284e+001  1.530999e+002
5.3995625000e+009  4.252547e+000 -5.633337e+001 -2.980017e+001 -1.195803e+002  2.093216e+001  1.212297e+002 -1.393349e+001  1.515726e+002
5.3996875000e+009  4.245243e+000 -5.847624e+001 -2.967907e+001 -1.214844e+002  2.087864e+001  1.228868e+002 -1.390145e+001  1.531946e+002
5.3998125000e+009  4.030259e+000 -6.066467e+001 -2.954624e+001 -1.231952e+002  2.089441e+001  1.237521e+002 -1.385593e+001  1.531695e+002
5.3999375000e+009  4.440750e+000 -5.867968e+001 -2.920764e+001 -1.183232e+002  2.084523e+001  1.217562e+002 -1.413723e+001  1.523415e+002
5.4000625000e+009  4.111635e+000 -6.002934e+001 -2.929475e+001 -1.254654e+002  2.085000e+001  1.231346e+002 -1.375046e+001  1.535916e+002
5.4001875000e+009  4.462642e+000 -5.989558e+001 -2.895291e+001 -1.247894e+002  2.086529e+001  1.220024e+002 -1.372973e+001  1.541891e+002
5.4003125000e+009  4.351878e+000 -5.887153e+001 -2.945343e+001 -1.222529e+002  2.091263e+001  1.221827e+002 -1.375514e+001  1.525882e+002
5.4004375000e+009  4.276850e+000 -6.032350e+001 -2.940048e+001 -1.257926e+002  2.085200e+001  1.228646e+002 -1.375022e+001  1.538495e+002
5.4005625000e+009  4.266363e+000 -6.001269e+001 -2.938955e+001 -1.261060e+002  2.091734e+001  1.230065e+002 -1.372235e+001  1.540020e+002
5.4006875000e+009  4.435996e+000 -5.826770e+001 -2.927743e+001 -1.208204e+002  2.092064e+001  1.217054e+002 -1.401129e+001  1.530637e+002
5.4008125000e+009  4.354224e+000 -6.187167e+001 -2.862538e+001 -1.243493e+002  2.081345e+001  1.234373e+002 -1.401681e+001  1.560175e+002
5.4009375000e+009  4.456215e+000 -6.147180e+001 -2.917559e+001 -1.250249e+002  2.081238e+001  1.226015e+002 -1.374322e+001  1.548386e+002
5.4010625000e+009  4.513640e+000 -6.016413e+001 -2.907672e+001 -1.273772e+002  2.090105e+001  1.227408e+002 -1.381142e+001  1.552126e+002
5.4011875000e+009  4.447640e+000 -6.218370e+001 -2.917551e+001 -1.245904e+002  2.081352e+001  1.234725e+002 -1.398056e+001  1.549000e+002
5.4013125000e+009  4.379455e+000 -6.212305e+001 -2.906192e+001 -1.228133e+002  2.086040e+001  1.233131e+002 -1.394964e+001  1.548999e+002
5.4014375000e+009  4.531871e+000 -6.146121e+001 -2.950626e+001 -1.282684e+002  2.089540e+001  1.230412e+002 -1.365207e+001  1.546877e+002
5.4015625000e+009  4.420259e+000 -6.248600e+001 -2.889228e+001 -1.235586e+002  2.082254e+001  1.230768e+002 -1.407144e+001  1.554878e+002
5.4016875000e+009  4.531365e+000 -6.350780e+001 -2.910708e+001 -1.268200e+002  2.082106e+001  1.232181e+002 -1.379368e+001  1.553883e+002
5.4018125000e+009  4.615142e+000 -6.296408e+001 -2.988723e+001 -1.316029e+002  2.087702e+001  1.229838e+002 -1.345264e+001  1.548201e+002
5.4019375000e+009  4.427796e+000 -6.369789e+001 -2.950403e+001 -1.208731e+002  2.067210e+001  1.239994e+002 -1.417201e+001  1.542577e+002
5.4020625000e+009  4.408140e+000 -6.405164e+001 -2.939285e+001 -1.297794e+002  2.093800e+001  1.236919e+002 -1.364085e+001  1.558049e+002
5.4021875000e+009  4.697041e+000 -6.387835e+001 -2.913558e+001 -1.254732e+002  2.082797e+001  1.233207e+002 -1.386293e+001  1.556358e+002
5.4023125000e+009  4.690578e+000 -6.596939e+001 -2.916380e+001 -1.288860e+002  2.079588e+001  1.243007e+002 -1.379418e+001  1.564237e+002
5.4024375000e+009  4.411406e+000 -6.614381e+001 -2.853304e+001 -1.271766e+002  2.086474e+001  1.239173e+002 -1.383761e+001  1.574325e+002
5.4025625000e+009  4.612020e+000 -6.530479e+001 -2.952819e+001 -1.308817e+002  2.088522e+001  1.232916e+002 -1.353107e+001  1.552982e+002
5.4026875000e+009  4.600455e+000 -6.628680e+001 -2.944821e+001 -1.329117e+002  2.071780e+001  1.243162e+002 -1.363776e+001  1.551899e+002
5.4028125000e+009  4.645560e+000 -6.690879e+001 -2.902911e+001 -1.235335e+002  2.080811e+001  1.243323e+002 -1.406185e+001  1.555572e+002
5.4029375000e+009  4.710835e+000 -6.730012e+001 -2.917573e+001 -1.277984e+002  2.074685e+001  1.245150e+002 -1.389070e+001  1.558718e+002
5.4030625000e+009  4.679096e+000 -6.913539e+001 -2.968162e+001 -1.270369e+002  2.072908e+001  1.254038e+002 -1.389483e+001  1.546864e+002
5.4031875000e+009  4.644907e+000 -6.746614e+001 -2.901495e+001 -1.288188e+002  2.078441e+001  1.243897e+002 -1.379439e+001  1.561909e+002
5.4033125000e+009  4.762954e+000 -6.747845e+001 -2.951860e+001 -1.302946e+002  2.084261e+001  1.241052e+002 -1.355785e+001  1.559982e+002
5.4034375000e+009  4.711095e+000 -6.833719e+001 -2.946714e+001 -1.339913e+002  2.085689e+001  1.249369e+002 -1.353479e+001  1.557313e+002
5.4035625000e+009  4.773586e+000 -6.972559e+001 -2.921433e+001 -1.326182e+002  2.079317e+001  1.252290e+002 -1.356775e+001  1.562717e+002
5.4036875000e+009  4.832093e+000 -6.810576e+001 -2.892557e+001 -1.297840e+002  2.086455e+001  1.239672e+002 -1.361338e+001  1.567853e+002
5.4038125000e+009  4.825393e+000 -6.966814e+001 -2.893796e+001 -1.331855e+002  2.080651e+001  1.245036e+002 -1.360232e+001  1.564243e+002
5.4039375000e+009  4.828702e+000 -6.931883e+001 -2.887358e+001 -1.321971e+002  2.092575e+001  1.244503e+002 -1.354837e+001  1.568058e+002
5.4040625000e+009  4.839927e+000 -6.907864e+001 -2.917784e+001 -1.352886e+002  2.089442e+001  1.251004e+002 -1.345760e+001  1.563240e+002
5.4041875000e+009  4.859307e+000 -7.118774e+001 -2.914985e+001 -1.320973e+002  2.083973e+001  1.254680e+002 -1.357349e+001  1.554349e+002
5.4043125000e+009  4.877909e+000 -7.090057e+001 -2.831915e+001 -1.359039e+002  2.095974e+001  1.251557e+002 -1.345215e+001  1.579326e+002
5.4044375000e+009  4.898935e+000 -7.096130e+001 -2.857344e+001 -1.323522e+002  2.079171e+001  1.255909e+002 -1.362907e+001  1.574063e+002
5.4045625000e+009  4.870175e+000 -7.185471e+001 -2.865620e+001 -1.325485e+002  2.078517e+001  1.255274e+002 -1.360905e+001  1.564189e+002
5.4046875000e+009  4.908912e+000 -7.242352e+001 -2.953853e+001 -1.339904e+002  2.081687e+001  1.256023e+002 -1.345142e+001  1.544464e+002
5.4048125000e+009  4.903541e+000 -7.187514e+001 -2.866336e+001 -1.357667e+002  2.091260e+001  1.252875e+002 -1.340408e+001  1.568527e+002
5.4049375000e+009  4.924595e+000 -7.286412e+001 -2.864900e+001 -1.371814e+002  2.085101e+001  1.258154e+002 -1.341532e+001  1.566643e+002
5.4050625000e+009  4.982334e+000 -7.337199e+001 -2.932912e+001 -1.375639e+002  2.085801e+001  1.254957e+002 -1.330311e+001  1.549511e+002
5.4051875000e+009  4.946322e+000 -7.329573e+001 -2.901746e+001 -1.379662e+002  2.096508e+001  1.255241e+002 -1.330609e+001  1.559513e+002
5.4053125000e+009  4.997757e+000 -7.429761e+001 -2.885158e+001 -1.346395e+002  2.088169e+001  1.256671e+002 -1.341021e+001  1.554361e+002
5.4054375000e+009  5.091883e+000 -7.465736e+001 -2.875390e+001 -1.379157e+002  2.097487e+001  1.256576e+002 -1.325455e+001  1.560986e+002
5.4055625000e+009  5.047451e+000 -7.450598e+001 -2.851919e+001 -1.385616e+002  2.091823e+001  1.258340e+002 -1.323952e+001  1.558808e+002
5.4056875000e+009  5.079301e+000 -7.579615e+001 -2.862751e+001 -1.420188e+002  2.099179e+001  1.261848e+002 -1.306076e+001  1.557042e+002
5.4058125000e+009  5.142942e+000 -7.558617e+001 -2.860604e+001 -1.420421e+002  2.087975e+001  1.265954e+002 -1.307155e+001  1.554644e+002
5.4059375000e+009  5.115629e+000 -7.670003e+001 -2.838225e+001 -1.336530e+002  2.098639e+001  1.260295e+002 -1.340730e+001  1.562965e+002
5.4060625000e+009  5.202049e+000 -7.679853e+001 -2.874892e+001 -1.371730e+002  2.091929e+001  1.261623e+002 -1.323574e+001  1.546131e+002
5.4061875000e+009  5.176483e+000 -7.713721e+001 -2.903700e+001 -1.408448e+002  2.102057e+001  1.261595e+002 -1.304971e+001  1.542048e+002
5.4063125000e+009  5.164946e+000 -7.672002e+001 -2.880195e+001 -1.380517e+002  2.103058e+001  1.261090e+002 -1.311254e+001  1.548293e+002
5.4064375000e+009  5.188322e+000 -7.810870e+001 -2.904037e+001 -1.417033e+002  2.098360e+001  1.264091e+002 -1.301275e+001  1.534464e+002
5.4065625000e+009  5.234214e+000 -7.845188e+001 -2.841818e+001 -1.398207e+002  2.107517e+001  1.262233e+002 -1.312964e+001  1.552637e+002
5.4066875000e+009  5.257541e+000 -7.792774e+001 -2.878798e+001 -1.398074e+002  2.104798e+001  1.262670e+002 -1.303132e+001  1.544672e+002
5.4068125000e+009  5.202228e+000 -7.930325e+001 -2.874656e+001 -1.439745e+002  2.111802e+001  1.262831e+002 -1.288680e+001  1.534561e+002
5.4069375000e+009  5.296334e+000 -7.954401e+001 -2.819738e+001 -1.379391e+002  2.114776e+001  1.267407e+002 -1.310637e+001  1.551545e+002
5.4070625000e+009  5.226382e+000 -7.978063e+001 -2.819779e+001 -1.432171e+002  2.113370e+001  1.268508e+002 -1.279973e+001  1.542980e+002
5.4071875000e+009  5.360433e+000 -7.962424e+001 -2.866995e+001 -1.419738e+002  2.111347e+001  1.263373e+002 -1.283387e+001  1.532369e+002
5.4073125000e+009  5.279610e+000 -8.040237e+001 -2.880925e+001 -1.437092e+002  2.125360e+001  1.267716e+002 -1.278768e+001  1.531790e+002
5.4074375000e+009  5.284525e+000 -8.055032e+001 -2.874323e+001 -1.447017e+002  2.124665e+001  1.266992e+002 -1.270960e+001  1.529293e+002
5.4075625000e+009  5.359451e+000 -8.095139e+001 -2.931542e+001 -1.455861e+002  2.120047e+001  1.265032e+002 -1.264840e+001  1.508637e+002
5.4076875000e+009  5.302671e+000 -8.109869e+001 -2.931891e+001 -1.440121e+002  2.123029e+001  1.265737e+002 -1.269660e+001  1.506385e+002
5.4078125000e+009  5.310982e+000 -8.157520e+001 -2.869340e+001 -1.438324e+002  2.137379e+001  1.268322e+002 -1.266258e+001  1.517401e+002
5.4079375000e+009  5.369827e+000 -8.249216e+001 -2.849193e+001 -1.448352e+002  2.130686e+001  1.265703e+002 -1.259106e+001  1.521668e+002
5.4080625000e+009  5.454421e+000 -8.219128e+001 -2.811318e+001 -1.465325e+002  2.126357e+001  1.267444e+002 -1.242229e+001  1.524717e+002
5.4081875000e+009  5.493936e+000 -8.300473e+001 -2.828289e+001 -1.454287e+002  2.131431e+001  1.267119e+002 -1.255293e+001  1.522804e+002
5.4083125000e+009  5.442027e+000 -8.267355e+001 -2.871995e+001 -1.448535e+002  2.132841e+001  1.260548e+002 -1.254777e+001  1.503820e+002
5.4084375000e+009  5.492435e+000 -8.363524e+001 -2.903721e+001 -1.481563e+002  2.139903e+001  1.268800e+002 -1.244371e+001  1.497238e+002
5.4085625000e+009  5.557312e+000 -8.409673e+001 -2.903767e+001 -1.444205e+002  2.139253e+001  1.269120e+002 -1.249428e+001  1.497789e+002
5.4086875000e+009  5.437906e+000 -8.314898e+001 -2.826289e+001 -1.446715e+002  2.145453e+001  1.265215e+002 -1.241220e+001  1.507093e+002
5.4088125000e+009  5.697642e+000 -8.437527e+001 -2.839229e+001 -1.533065e+002  2.135068e+001  1.267833e+002 -1.197082e+001  1.493653e+002
5.4089375000e+009  5.618098e+000 -8.518161e+001 -2.807363e+001 -1.429426e+002  2.149852e+001  1.273531e+002 -1.244531e+001  1.506747e+002
5.4090625000e+009  5.534014e+000 -8.483273e+001 -2.955282e+001 -1.506688e+002  2.146347e+001  1.267348e+002 -1.214485e+001  1.472180e+002
5.4091875000e+009  5.694702e+000 -8.531902e+001 -2.794298e+001 -1.482147e+002  2.148135e+001  1.268203e+002 -1.206309e+001  1.500342e+002
5.4093125000e+009  5.755164e+000 -8.523537e+001 -2.846554e+001 -1.478254e+002  2.148854e+001  1.268118e+002 -1.216890e+001  1.486449e+002
5.4094375000e+009  5.711264e+000 -8.560342e+001 -2.820693e+001 -1.486496e+002  2.149301e+001  1.266316e+002 -1.197509e+001  1.495167e+002
5.4095625000e+009  5.582183e+000 -8.490486e+001 -2.898058e+001 -1.523758e+002  2.158312e+001  1.262012e+002 -1.190366e+001  1.462009e+002
5.4096875000e+009  5.868906e+000 -8.662113e+001 -2.827804e+001 -1.468965e+002  2.154321e+001  1.268030e+002 -1.206790e+001  1.486640e+002
5.4098125000e+009  5.663831e+000 -8.617162e+001 -2.833192e+001 -1.532328e+002  2.163809e+001  1.264841e+002 -1.175211e+001  1.473185e+002
5.4099375000e+009  5.668292e+000 -8.641498e+001 -2.795697e+001 -1.537655e+002  2.162721e+001  1.263546e+002 -1.155967e+001  1.486255e+002
5.4100625000e+009  5.955417e+000 -8.694273e+001 -2.816447e+001 -1.531769e+002  2.160415e+001  1.265910e+002 -1.154442e+001  1.478058e+002
5.4101875000e+009  5.682692e+000 -8.735005e+001 -2.831918e+001 -1.510757e+002  2.171851e+001  1.259806e+002 -1.159612e+001  1.471617e+002
5.4103125000e+009  5.742293e+000 -8.843561e+001 -2.822937e+001 -1.534321e+002  2.169996e+001  1.263106e+002 -1.142671e+001  1.470538e+002
5.4104375000e+009  5.843823e+000 -8.866145e+001 -2.805328e+001 -1.540226e+002  2.175187e+001  1.263654e+002 -1.135201e+001  1.463687e+002
5.4105625000e+009  5.796359e+000 -8.788823e+001 -2.850577e+001 -1.505858e+002  2.179280e+001  1.259505e+002 -1.142527e+001  1.451636e+002
5.4106875000e+009  5.588035e+000 -8.702071e+001 -2.827672e+001 -1.528203e+002  2.180638e+001  1.256116e+002 -1.129332e+001  1.461455e+002
5.4108125000e+009  5.610904e+000 -8.791883e+001 -2.827265e+001 -1.539777e+002  2.185971e+001  1.257035e+002 -1.118332e+001  1.450741e+002
5.4109375000e+009  5.880963e+000 -8.793642e+001 -2.881294e+001 -1.552298e+002  2.179053e+001  1.253286e+002 -1.109118e+001  1.440254e+002
5.4110625000e+009  5.840719e+000 -8.895351e+001 -2.827209e+001 -1.512093e+002  2.186649e+001  1.256337e+002 -1.118057e+001  1.447290e+002
5.4111875000e+009  5.760242e+000 -8.860571e+001 -2.830082e+001 -1.539485e+002  2.184769e+001  1.256287e+002 -1.092681e+001  1.453147e+002
5.4113125000e+009  6.068735e+000 -9.046783e+001 -2.811902e+001 -1.541449e+002  2.183313e+001  1.259648e+002 -1.099804e+001  1.446982e+002
5.4114375000e+009  5.925848e+000 -8.875308e+001 -2.858120e+001 -1.518620e+002  2.186673e+001  1.252520e+002 -1.083712e+001  1.442993e+002
5.4115625000e+009  6.055507e+000 -9.017654e+001 -2.844077e+001 -1.582788e+002  2.189036e+001  1.258477e+002 -1.055719e+001  1.421836e+002
5.4116875000e+009  5.797568e+000 -8.934306e+001 -2.860449e+001 -1.553279e+002  2.192127e+001  1.249077e+002 -1.051973e+001  1.421568e+002
5.4118125000e+009  5.665121e+000 -8.823806e+001 -2.859983e+001 -1.575191e+002  2.191357e+001  1.246896e+002 -1.030854e+001  1.418618e+002
5.4119375000e+009  5.734928e+000 -8.872342e+001 -2.887155e+001 -1.614694e+002  2.189101e+001  1.248637e+002 -1.021416e+001  1.400438e+002
5.4120625000e+009  5.855669e+000 -8.770945e+001 -2.960744e+001 -1.582779e+002  2.181365e+001  1.245615e+002 -1.003608e+001  1.389750e+002
5.4121875000e+009  5.651799e+000 -8.693700e+001 -2.915415e+001 -1.547273e+002  2.184207e+001  1.244435e+002 -9.889875e+000  1.379933e+002
5.4123125000e+009  5.884862e+000 -8.856599e+001 -2.907116e+001 -1.524027e+002  2.180743e+001  1.251607e+002 -9.824523e+000  1.362348e+002
5.4124375000e+009  5.899667e+000 -8.700938e+001 -2.839128e+001 -1.562810e+002  2.177327e+001  1.254412e+002 -9.601646e+000  1.351886e+002
5.4125625000e+009  5.947857e+000 -8.676720e+001 -2.972336e+001 -1.515102e+002  2.178245e+001  1.264681e+002 -9.575273e+000  1.323434e+002
5.4126875000e+009  6.095572e+000 -8.508042e+001 -2.891440e+001 -1.517515e+002  2.180223e+001  1.263720e+002 -9.717119e+000  1.296258e+002
5.4128125000e+009  6.062641e+000 -8.605513e+001 -2.864763e+001 -1.519697e+002  2.186432e+001  1.270311e+002 -1.010282e+001  1.288047e+002
5.4129375000e+009  6.096576e+000 -8.548502e+001 -2.921275e+001 -1.523565e+002  2.203358e+001  1.270283e+002 -1.013902e+001  1.266002e+002
5.4130625000e+009  6.261725e+000 -8.602410e+001 -2.839721e+001 -1.499798e+002  2.200458e+001  1.275077e+002 -1.065898e+001  1.289296e+002
5.4131875000e+009  6.289395e+000 -8.634962e+001 -2.895031e+001 -1.480757e+002  2.216888e+001  1.275017e+002 -1.084671e+001  1.283337e+002
5.4133125000e+009  6.190548e+000 -8.634566e+001 -2.812082e+001 -1.520119e+002  2.228517e+001  1.272334e+002 -1.084428e+001  1.308246e+002
5.4134375000e+009  6.657988e+000 -8.832037e+001 -2.860550e+001 -1.491264e+002  2.225910e+001  1.275013e+002 -1.120963e+001  1.289953e+002
5.4135625000e+009  6.488921e+000 -8.918118e+001 -2.825518e+001 -1.537516e+002  2.238960e+001  1.268901e+002 -1.107856e+001  1.308326e+002
5.4136875000e+009  6.128001e+000 -8.965701e+001 -2.887034e+001 -1.581089e+002  2.252038e+001  1.269760e+002 -1.103041e+001  1.313493e+002
5.4138125000e+009  6.879898e+000 -9.091747e+001 -2.817496e+001 -1.524617e+002  2.240697e+001  1.272238e+002 -1.118299e+001  1.316727e+002
5.4139375000e+009  6.270242e+000 -9.074908e+001 -2.796885e+001 -1.556208e+002  2.261005e+001  1.268156e+002 -1.093288e+001  1.332662e+002
5.4140625000e+009  6.339165e+000 -9.111923e+001 -2.803978e+001 -1.539951e+002  2.266689e+001  1.269254e+002 -1.091738e+001  1.345094e+002
5.4141875000e+009  6.800849e+000 -9.181281e+001 -2.791323e+001 -1.531992e+002  2.257880e+001  1.268665e+002 -1.105918e+001  1.339675e+002
5.4143125000e+009  6.821732e+000 -9.329701e+001 -2.854650e+001 -1.561471e+002  2.264419e+001  1.275288e+002 -1.097270e+001  1.356415e+002
5.4144375000e+009  6.435055e+000 -9.342482e+001 -2.797213e+001 -1.568050e+002  2.279745e+001  1.265135e+002 -1.079745e+001  1.347625e+002
5.4145625000e+009  6.279825e+000 -9.428112e+001 -2.795022e+001 -1.543470e+002  2.280579e+001  1.265895e+002 -1.090985e+001  1.358240e+002
5.4146875000e+009  6.093950e+000 -9.236614e+001 -2.874773e+001 -1.548393e+002  2.282565e+001  1.254459e+002 -1.104588e+001  1.345134e+002
5.4148125000e+009  5.975733e+000 -9.366373e+001 -2.862737e+001 -1.579620e+002  2.292493e+001  1.259273e+002 -1.078574e+001  1.356774e+002
5.4149375000e+009  6.214816e+000 -9.382717e+001 -2.840150e+001 -1.603133e+002  2.295570e+001  1.257543e+002 -1.068215e+001  1.353890e+002
5.4150625000e+009  6.169199e+000 -9.402048e+001 -2.840765e+001 -1.647618e+002  2.288758e+001  1.252955e+002 -1.066713e+001  1.349203e+002
5.4151875000e+009  6.017935e+000 -9.618414e+001 -2.863792e+001 -1.572858e+002  2.298681e+001  1.254734e+002 -1.087897e+001  1.358764e+002
5.4153125000e+009  6.018600e+000 -9.554618e+001 -2.751294e+001 -1.593427e+002  2.313935e+001  1.253506e+002 -1.032687e+001  1.366922e+002
5.4154375000e+009  5.649870e+000 -9.566173e+001 -2.923442e+001 -1.571890e+002  2.313890e+001  1.246417e+002 -1.078952e+001  1.356574e+002
5.4155625000e+009  5.843987e+000 -9.684673e+001 -2.842004e+001 -1.587046e+002  2.324092e+001  1.251669e+002 -1.041882e+001  1.367514e+002
5.4156875000e+009  6.406584e+000 -9.646969e+001 -2.797908e+001 -1.586981e+002  2.319053e+001  1.243945e+002 -1.028325e+001  1.342480e+002
5.4158125000e+009  5.918949e+000 -9.749072e+001 -2.861920e+001 -1.584217e+002  2.324063e+001  1.247775e+002 -1.054461e+001  1.363413e+002
5.4159375000e+009  5.880291e+000 -9.663556e+001 -2.846713e+001 -1.614561e+002  2.327811e+001  1.243513e+002 -1.038646e+001  1.355271e+002
5.4160625000e+009  6.205640e+000 -9.770688e+001 -2.811939e+001 -1.583699e+002  2.323650e+001  1.240152e+002 -1.037022e+001  1.353291e+002
5.4161875000e+009  6.014051e+000 -9.851064e+001 -2.817857e+001 -1.630037e+002  2.331588e+001  1.248026e+002 -1.024772e+001  1.371045e+002
5.4163125000e+009  5.674628e+000 -9.718768e+001 -2.869411e+001 -1.590192e+002  2.343073e+001  1.235741e+002 -1.018466e+001  1.355984e+002
5.4164375000e+009  5.862463e+000 -9.808704e+001 -2.817949e+001 -1.607400e+002  2.348972e+001  1.239427e+002 -1.008263e+001  1.360740e+002
5.4165625000e+009  5.783758e+000 -9.834566e+001 -2.883206e+001 -1.596620e+002  2.346237e+001  1.237616e+002 -1.034406e+001  1.356136e+002
5.4166875000e+009  5.318089e+000 -9.930703e+001 -2.824262e+001 -1.645873e+002  2.349610e+001  1.232618e+002 -1.012391e+001  1.362561e+002
5.4168125000e+009  5.792759e+000 -9.732032e+001 -2.774581e+001 -1.653821e+002  2.349326e+001  1.229831e+002 -9.917044e+000  1.357441e+002
5.4169375000e+009  5.881833e+000 -9.903033e+001 -2.842082e+001 -1.649397e+002  2.341865e+001  1.235224e+002 -1.027006e+001  1.361030e+002
5.4170625000e+009  5.633644e+000 -1.004877e+002 -2.900445e+001 -1.659118e+002  2.360802e+001  1.240289e+002 -1.009914e+001  1.368600e+002
5.4171875000e+009  5.706779e+000 -1.004834e+002 -2.833489e+001 -1.634113e+002  2.371469e+001  1.227311e+002 -9.815815e+000  1.351512e+002
5.4173125000e+009  5.838359e+000 -9.890654e+001 -2.846075e+001 -1.671197e+002  2.364838e+001  1.221845e+002 -9.811999e+000  1.342304e+002
5.4174375000e+009  5.514478e+000 -1.013665e+002 -2.822026e+001 -1.677906e+002  2.369348e+001  1.226188e+002 -9.883532e+000  1.355105e+002
5.4175625000e+009  5.550336e+000 -1.013008e+002 -2.894056e+001 -1.674028e+002  2.378742e+001  1.220572e+002 -9.821559e+000  1.342280e+002
5.4176875000e+009  5.729999e+000 -1.015443e+002 -2.985833e+001 -1.645619e+002  2.382960e+001  1.221598e+002 -9.835294e+000  1.343506e+002
5.4178125000e+009  5.588146e+000 -1.011527e+002 -2.921770e+001 -1.666281e+002  2.370469e+001  1.219739e+002 -1.005385e+001  1.343390e+002
5.4179375000e+009  5.623301e+000 -1.009910e+002 -2.921552e+001 -1.643419e+002  2.391868e+001  1.226884e+002 -9.665432e+000  1.361977e+002
5.4180625000e+009  5.776340e+000 -1.007233e+002 -2.869068e+001 -1.641762e+002  2.378674e+001  1.211754e+002 -9.827574e+000  1.343337e+002
5.4181875000e+009  5.188959e+000 -1.030313e+002 -2.965856e+001 -1.675452e+002  2.386883e+001  1.210571e+002 -9.923182e+000  1.339355e+002
5.4183125000e+009  5.565620e+000 -1.026714e+002 -2.890685e+001 -1.673512e+002  2.398356e+001  1.212627e+002 -9.584591e+000  1.343830e+002
5.4184375000e+009  5.306990e+000 -1.018558e+002 -2.913141e+001 -1.675210e+002  2.402921e+001  1.202242e+002 -9.504594e+000  1.333887e+002
5.4185625000e+009  5.201077e+000 -1.036461e+002 -2.885725e+001 -1.666196e+002  2.411454e+001  1.209842e+002 -9.579532e+000  1.348169e+002
5.4186875000e+009  5.328473e+000 -1.022485e+002 -2.914646e+001 -1.632471e+002  2.406726e+001  1.201658e+002 -9.614152e+000  1.341511e+002
5.4188125000e+009  5.302334e+000 -1.029078e+002 -2.929623e+001 -1.666670e+002  2.400043e+001  1.204391e+002 -9.703056e+000  1.345190e+002
5.4189375000e+009  5.412499e+000 -1.023612e+002 -2.886633e+001 -1.659829e+002  2.401933e+001  1.203271e+002 -9.699474e+000  1.344694e+002
5.4190625000e+009  5.228549e+000 -1.036582e+002 -2.948409e+001 -1.657807e+002  2.407900e+001  1.201985e+002 -9.662142e+000  1.346160e+002
5.4191875000e+009  5.185459e+000 -1.039323e+002 -2.951920e+001 -1.709957e+002  2.395103e+001  1.197435e+002 -9.879619e+000  1.334558e+002
5.4193125000e+009  5.078489e+000 -1.051020e+002 -2.903177e+001 -1.699878e+002  2.408164e+001  1.202578e+002 -9.671901e+000  1.346447e+002
5.4194375000e+009  5.158846e+000 -1.046842e+002 -2.961716e+001 -1.707020e+002  2.424477e+001  1.195149e+002 -9.413206e+000  1.337925e+002
5.4195625000e+009  5.148797e+000 -1.035754e+002 -2.867959e+001 -1.692984e+002  2.424740e+001  1.194864e+002 -9.315360e+000  1.346015e+002
5.4196875000e+009  5.138309e+000 -1.054112e+002 -2.932743e+001 -1.727578e+002  2.426402e+001  1.193676e+002 -9.414466e+000  1.335097e+002
5.4198125000e+009  5.052195e+000 -1.058108e+002 -2.939083e+001 -1.742232e+002  2.441352e+001  1.188845e+002 -9.168720e+000  1.332124e+002
5.4199375000e+009  5.177119e+000 -1.033316e+002 -2.881616e+001 -1.728767e+002  2.420496e+001  1.186779e+002 -9.351507e+000  1.334016e+002
5.4200625000e+009  5.057316e+000 -1.051891e+002 -2.898150e+001 -1.733152e+002  2.447442e+001  1.184959e+002 -9.116033e+000  1.325278e+002
5.4201875000e+009  5.010856e+000 -1.064574e+002 -2.869215e+001 -1.729933e+002  2.456610e+001  1.180050e+002 -8.902316e+000  1.331415e+002
5.4203125000e+009  5.085589e+000 -1.055107e+002 -2.904068e+001 -1.717556e+002  2.430360e+001  1.182478e+002 -9.390984e+000  1.331338e+002
5.4204375000e+009  4.887662e+000 -1.079123e+002 -2.923773e+001 -1.755672e+002  2.446902e+001  1.183435e+002 -9.209605e+000  1.333048e+002
5.4205625000e+009  4.953127e+000 -1.060960e+002 -2.959215e+001 -1.735381e+002  2.433040e+001  1.181045e+002 -9.429288e+000  1.333435e+002
5.4206875000e+009  5.016384e+000 -1.058405e+002 -2.911979e+001 -1.733770e+002  2.454176e+001  1.173219e+002 -9.042068e+000  1.325441e+002
5.4208125000e+009  4.905896e+000 -1.072971e+002 -2.921877e+001 -1.728111e+002  2.449682e+001  1.171712e+002 -9.228195e+000  1.326290e+002
5.4209375000e+009  5.005906e+000 -1.065614e+002 -2.925262e+001 -1.738280e+002  2.459502e+001  1.174560e+002 -8.979269e+000  1.331003e+002
5.4210625000e+009  4.922944e+000 -1.073113e+002 -2.959597e+001 -1.720128e+002  2.457362e+001  1.177594e+002 -9.158582e+000  1.337262e+002
5.4211875000e+009  4.931125e+000 -1.077751e+002 -2.981251e+001 -1.753316e+002  2.448993e+001  1.173901e+002 -9.233462e+000  1.333658e+002
5.4213125000e+009  4.796165e+000 -1.087212e+002 -2.931867e+001 -1.750280e+002  2.471328e+001  1.167375e+002 -8.908316e+000  1.325698e+002
5.4214375000e+009  4.853007e+000 -1.081278e+002 -2.944176e+001 -1.747396e+002  2.473942e+001  1.163957e+002 -8.854237e+000  1.325760e+002
5.4215625000e+009  4.913953e+000 -1.080173e+002 -2.925762e+001 -1.756518e+002  2.454832e+001  1.167906e+002 -9.177809e+000  1.329825e+002
5.4216875000e+009  4.838575e+000 -1.084845e+002 -2.914836e+001 -1.770747e+002  2.473927e+001  1.167856e+002 -8.890695e+000  1.332780e+002
5.4218125000e+009  4.853043e+000 -1.078885e+002 -3.014047e+001 -1.789305e+002  2.470848e+001  1.162509e+002 -8.994733e+000  1.321934e+002
5.4219375000e+009  4.778437e+000 -1.089982e+002 -2.940073e+001 -1.766396e+002  2.473132e+001  1.157087e+002 -8.919505e+000  1.321958e+002
5.4220625000e+009  4.800101e+000 -1.092730e+002 -2.954199e+001 -1.774710e+002  2.488306e+001  1.163573e+002 -8.714484e+000  1.328187e+002
5.4221875000e+009  4.758829e+000 -1.079049e+002 -2.926892e+001 -1.763846e+002  2.474453e+001  1.152539e+002 -8.864014e+000  1.324858e+002
5.4223125000e+009  4.709259e+000 -1.093188e+002 -2.904690e+001  1.793352e+002  2.480039e+001  1.151027e+002 -8.802330e+000  1.318486e+002
5.4224375000e+009  4.686169e+000 -1.090445e+002 -2.906089e+001 -1.765514e+002  2.499514e+001  1.155335e+002 -8.498958e+000  1.329291e+002
5.4225625000e+009  4.683153e+000 -1.092828e+002 -2.988148e+001 -1.761430e+002  2.494896e+001  1.153774e+002 -8.660631e+000  1.332366e+002
5.4226875000e+009  4.705887e+000 -1.101104e+002 -2.968275e+001 -1.786897e+002  2.489252e+001  1.149752e+002 -8.776608e+000  1.321544e+002
5.4228125000e+009  4.588809e+000 -1.104509e+002 -2.960720e+001 -1.720625e+002  2.496547e+001  1.147412e+002 -8.713547e+000  1.331485e+002
5.4229375000e+009  4.599054e+000 -1.093614e+002 -2.907728e+001 -1.745700e+002  2.497210e+001  1.145047e+002 -8.573133e+000  1.326123e+002
5.4230625000e+009  4.589709e+000 -1.107061e+002 -3.000258e+001 -1.783091e+002  2.503405e+001  1.146878e+002 -8.627082e+000  1.326032e+002
5.4231875000e+009  4.583079e+000 -1.112049e+002 -3.000700e+001  1.780729e+002  2.496593e+001  1.145777e+002 -8.750750e+000  1.327621e+002
5.4233125000e+009  4.576887e+000 -1.096596e+002 -2.922458e+001 -1.768008e+002  2.527609e+001  1.147660e+002 -8.156198e+000  1.336494e+002
5.4234375000e+009  4.527686e+000 -1.110244e+002 -2.943872e+001 -1.795424e+002  2.495753e+001  1.135149e+002 -8.707012e+000  1.320692e+002
5.4235625000e+009  4.506464e+000 -1.109988e+002 -2.955634e+001  1.787260e+002  2.506956e+001  1.135551e+002 -8.560616e+000  1.319053e+002
5.4236875000e+009  4.487633e+000 -1.106713e+002 -2.892307e+001 -1.765011e+002  2.516543e+001  1.131261e+002 -8.375094e+000  1.319762e+002
5.4238125000e+009  4.446855e+000 -1.118524e+002 -2.953695e+001 -1.773215e+002  2.514187e+001  1.130149e+002 -8.471363e+000  1.321215e+002
5.4239375000e+009  4.406141e+000 -1.115392e+002 -2.900493e+001 -1.799457e+002  2.520358e+001  1.133772e+002 -8.341055e+000  1.321717e+002
5.4240625000e+009  4.489077e+000 -1.114570e+002 -3.067006e+001  1.779232e+002  2.514128e+001  1.124070e+002 -8.585559e+000  1.313075e+002
5.4241875000e+009  4.421033e+000 -1.123938e+002 -3.037265e+001  1.774019e+002  2.511692e+001  1.117518e+002 -8.646211e+000  1.307027e+002
5.4243125000e+009  4.362642e+000 -1.118092e+002 -3.002375e+001  1.758241e+002  2.518271e+001  1.126700e+002 -8.430012e+000  1.322559e+002
5.4244375000e+009  4.360435e+000 -1.121084e+002 -2.955094e+001  1.775793e+002  2.528829e+001  1.125323e+002 -8.232725e+000  1.321489e+002
5.4245625000e+009  4.404592e+000 -1.124105e+002 -3.052683e+001  1.753249e+002  2.536679e+001  1.122698e+002 -8.198166e+000  1.320295e+002
5.4246875000e+009  4.362300e+000 -1.128454e+002 -2.979718e+001  1.766637e+002  2.532490e+001  1.124573e+002 -8.213004e+000  1.325949e+002
5.4248125000e+009  4.352058e+000 -1.125635e+002 -2.999572e+001  1.769217e+002  2.529045e+001  1.115636e+002 -8.346439e+000  1.317823e+002
5.4249375000e+009  4.264559e+000 -1.131614e+002 -3.049994e+001  1.789405e+002  2.536541e+001  1.114151e+002 -8.249583e+000  1.317025e+002
5.4250625000e+009  4.192072e+000 -1.131205e+002 -2.969830e+001  1.732823e+002  2.546227e+001  1.123445e+002 -7.987117e+000  1.334436e+002
5.4251875000e+009  4.259579e+000 -1.130721e+002 -3.016273e+001 -1.796696e+002  2.536965e+001  1.107382e+002 -8.172736e+000  1.315353e+002
5.4253125000e+009  4.208480e+000 -1.137528e+002 -3.015730e+001  1.770254e+002  2.538037e+001  1.104456e+002 -8.230504e+000  1.313299e+002
5.4254375000e+009  4.168602e+000 -1.136696e+002 -3.049027e+001  1.760079e+002  2.544863e+001  1.113123e+002 -8.117254e+000  1.331249e+002
5.4255625000e+009  4.068974e+000 -1.135503e+002 -2.941932e+001  1.756193e+002  2.547638e+001  1.108706e+002 -8.024473e+000  1.327246e+002
5.4256875000e+009  4.061606e+000 -1.141987e+002 -2.996007e+001  1.772548e+002  2.548731e+001  1.100108e+002 -8.164661e+000  1.316469e+002
5.4258125000e+009  3.978570e+000 -1.142470e+002 -3.071473e+001  1.764765e+002  2.547765e+001  1.099890e+002 -8.291299e+000  1.322918e+002
5.4259375000e+009  3.909911e+000 -1.142629e+002 -3.021126e+001  1.739911e+002  2.556536e+001  1.096962e+002 -8.031039e+000  1.320939e+002
5.4260625000e+009  3.861851e+000 -1.149492e+002 -3.018562e+001  1.743480e+002  2.562691e+001  1.091294e+002 -8.027858e+000  1.315096e+002
5.4261875000e+009  3.932936e+000 -1.151642e+002 -3.064915e+001  1.753015e+002  2.557542e+001  1.088259e+002 -8.277053e+000  1.315290e+002
5.4263125000e+009  3.828973e+000 -1.153815e+002 -3.064385e+001  1.758713e+002  2.557659e+001  1.087817e+002 -8.229258e+000  1.320710e+002
5.4264375000e+009  3.794947e+000 -1.155518e+002 -3.023356e+001  1.714042e+002  2.567538e+001  1.080243e+002 -8.096416e+000  1.307242e+002
5.4265625000e+009  3.725552e+000 -1.152585e+002 -3.036476e+001  1.723148e+002  2.565493e+001  1.081525e+002 -8.198050e+000  1.313180e+002
5.4266875000e+009  3.685921e+000 -1.155086e+002 -3.042235e+001  1.734494e+002  2.569441e+001  1.088464e+002 -8.080941e+000  1.331290e+002
5.4268125000e+009  3.613456e+000 -1.158562e+002 -3.048654e+001  1.744222e+002  2.573822e+001  1.078438e+002 -8.077090e+000  1.319565e+002
5.4269375000e+009  3.588009e+000 -1.163804e+002 -3.028081e+001  1.749117e+002  2.573119e+001  1.083695e+002 -8.088125e+000  1.337241e+002
5.4270625000e+009  3.556409e+000 -1.166001e+002 -3.053065e+001  1.771639e+002  2.572949e+001  1.083007e+002 -8.127210e+000  1.343907e+002
5.4271875000e+009  3.423696e+000 -1.163875e+002 -2.992022e+001  1.745291e+002  2.579714e+001  1.068745e+002 -8.004947e+000  1.314733e+002
5.4273125000e+009  3.483865e+000 -1.173891e+002 -3.139894e+001  1.739948e+002  2.587633e+001  1.068359e+002 -8.116403e+000  1.323874e+002
5.4274375000e+009  3.491412e+000 -1.174886e+002 -3.083920e+001  1.703261e+002  2.589830e+001  1.067671e+002 -7.996090e+000  1.321915e+002
5.4275625000e+009  3.381176e+000 -1.172939e+002 -3.048660e+001  1.733022e+002  2.592686e+001  1.059739e+002 -8.012421e+000  1.316078e+002
5.4276875000e+009  3.331173e+000 -1.173778e+002 -3.061641e+001  1.725963e+002  2.589006e+001  1.062234e+002 -8.127881e+000  1.323340e+002
5.4278125000e+009  3.342016e+000 -1.176945e+002 -3.041199e+001  1.734821e+002  2.589590e+001  1.064687e+002 -8.100253e+000  1.338659e+002
5.4279375000e+009  3.169106e+000 -1.177014e+002 -3.058173e+001  1.710774e+002  2.595866e+001  1.053769e+002 -8.096704e+000  1.321436e+002
5.4280625000e+009  3.148246e+000 -1.181969e+002 -3.104133e+001  1.722244e+002  2.597426e+001  1.055782e+002 -8.069897e+000  1.328929e+002
5.4281875000e+009  3.133621e+000 -1.180726e+002 -3.059827e+001  1.749486e+002  2.597742e+001  1.056457e+002 -8.012086e+000  1.338933e+002
5.4283125000e+009  3.161916e+000 -1.186607e+002 -3.039250e+001  1.716441e+002  2.603949e+001  1.044435e+002 -8.117290e+000  1.314727e+002
5.4284375000e+009  3.086645e+000 -1.190160e+002 -3.064332e+001  1.737168e+002  2.599853e+001  1.046130e+002 -8.146046e+000  1.334290e+002
5.4285625000e+009  3.024585e+000 -1.191995e+002 -3.101770e+001  1.746937e+002  2.603861e+001  1.044732e+002 -8.056247e+000  1.336651e+002
5.4286875000e+009  2.989161e+000 -1.192749e+002 -3.120956e+001  1.702697e+002  2.612661e+001  1.038578e+002 -8.061451e+000  1.319626e+002
5.4288125000e+009  2.934752e+000 -1.188535e+002 -3.068696e+001  1.718632e+002  2.609059e+001  1.036725e+002 -8.087429e+000  1.327682e+002
5.4289375000e+009  2.878951e+000 -1.194751e+002 -3.059218e+001  1.706391e+002  2.608889e+001  1.037065e+002 -8.182813e+000  1.334151e+002
5.4290625000e+009  2.823309e+000 -1.200348e+002 -3.027304e+001  1.713867e+002  2.612070e+001  1.030402e+002 -8.102283e+000  1.325491e+002
5.4291875000e+009  2.787860e+000 -1.201925e+002 -3.099289e+001  1.762399e+002  2.614408e+001  1.030363e+002 -8.086024e+000  1.333844e+002
5.4293125000e+009  2.818679e+000 -1.198307e+002 -3.081106e+001  1.695532e+002  2.613813e+001  1.027579e+002 -8.178734e+000  1.336707e+002
5.4294375000e+009  2.706599e+000 -1.207001e+002 -3.147487e+001  1.676020e+002  2.622961e+001  1.017357e+002 -8.059569e+000  1.318651e+002
5.4295625000e+009  2.574592e+000 -1.206919e+002 -3.072202e+001  1.712509e+002  2.622879e+001  1.021048e+002 -8.045650e+000  1.326802e+002
5.4296875000e+009  2.633156e+000 -1.205230e+002 -3.062683e+001  1.700841e+002  2.623951e+001  1.018727e+002 -8.096376e+000  1.328989e+002
5.4298125000e+009  2.673131e+000 -1.214751e+002 -3.156527e+001  1.698631e+002  2.625293e+001  1.013978e+002 -8.153676e+000  1.328279e+002
5.4299375000e+009  2.654867e+000 -1.210714e+002 -3.082042e+001  1.681042e+002  2.620747e+001  1.015972e+002 -8.232883e+000  1.344688e+002
5.4300625000e+009  2.658769e+000 -1.219008e+002 -3.091889e+001  1.705932e+002  2.623394e+001  1.011000e+002 -8.228346e+000  1.339845e+002
5.4301875000e+009  2.516534e+000 -1.215236e+002 -3.121564e+001  1.704135e+002  2.626257e+001  1.004307e+002 -8.141383e+000  1.329986e+002
5.4303125000e+009  2.310713e+000 -1.219282e+002 -3.128810e+001  1.712214e+002  2.627135e+001  1.007558e+002 -8.145301e+000  1.334715e+002
5.4304375000e+009  2.503601e+000 -1.226312e+002 -3.122794e+001  1.726322e+002  2.629090e+001  1.003213e+002 -8.156276e+000  1.338156e+002
5.4305625000e+009  2.451035e+000 -1.227248e+002 -3.137554e+001  1.708599e+002  2.633367e+001  9.950137e+001 -8.166590e+000  1.331839e+002
5.4306875000e+009  2.153375e+000 -1.224455e+002 -3.120526e+001  1.694025e+002  2.633621e+001  9.969546e+001 -8.226910e+000  1.341824e+002
5.4308125000e+009  2.419529e+000 -1.234984e+002 -3.171066e+001  1.720686e+002  2.633855e+001  9.900758e+001 -8.209197e+000  1.349275e+002
5.4309375000e+009  2.187750e+000 -1.228093e+002 -3.157781e+001  1.717764e+002  2.636962e+001  9.908424e+001 -8.244908e+000  1.345812e+002
5.4310625000e+009  2.185283e+000 -1.229190e+002 -3.158376e+001  1.653944e+002  2.633695e+001  9.851145e+001 -8.198278e+000  1.343797e+002
5.4311875000e+009  2.174150e+000 -1.230579e+002 -3.105846e+001  1.701130e+002  2.635783e+001  9.817264e+001 -8.252818e+000  1.342570e+002
5.4313125000e+009  2.113973e+000 -1.238086e+002 -3.178044e+001  1.693037e+002  2.641590e+001  9.823064e+001 -8.224572e+000  1.342186e+002
5.4314375000e+009  2.160661e+000 -1.238941e+002 -3.117824e+001  1.694860e+002  2.644827e+001  9.811373e+001 -8.171101e+000  1.344847e+002
5.4315625000e+009  2.140657e+000 -1.240390e+002 -3.106674e+001  1.676338e+002  2.643047e+001  9.725296e+001 -8.264767e+000  1.349986e+002
5.4316875000e+009  1.945841e+000 -1.242401e+002 -3.137210e+001  1.673467e+002  2.637916e+001  9.713213e+001 -8.285957e+000  1.343376e+002
5.4318125000e+009  2.006376e+000 -1.244230e+002 -3.160293e+001  1.641994e+002  2.648572e+001  9.733511e+001 -8.292187e+000  1.352155e+002
5.4319375000e+009  2.070722e+000 -1.246203e+002 -3.185159e+001  1.666841e+002  2.644066e+001  9.634869e+001 -8.302602e+000  1.351724e+002
5.4320625000e+009  1.881606e+000 -1.249211e+002 -3.114894e+001  1.723248e+002  2.641369e+001  9.643391e+001 -8.238121e+000  1.346303e+002
5.4321875000e+009  1.824243e+000 -1.253710e+002 -3.134372e+001  1.664182e+002  2.646571e+001  9.611478e+001 -8.301724e+000  1.350346e+002
5.4323125000e+009  1.783473e+000 -1.248897e+002 -3.171965e+001  1.677403e+002  2.653721e+001  9.553851e+001 -8.310962e+000  1.353809e+002
5.4324375000e+009  1.744636e+000 -1.256935e+002 -3.205402e+001  1.674839e+002  2.643444e+001  9.564895e+001 -8.277968e+000  1.354744e+002
5.4325625000e+009  1.717487e+000 -1.260685e+002 -3.141822e+001  1.691809e+002  2.655008e+001  9.510468e+001 -8.285977e+000  1.350535e+002
5.4326875000e+009  1.820456e+000 -1.258601e+002 -3.178161e+001  1.686986e+002  2.648802e+001  9.475529e+001 -8.273688e+000  1.353065e+002
5.4328125000e+009  1.714587e+000 -1.262664e+002 -3.196083e+001  1.681914e+002  2.654803e+001  9.497228e+001 -8.234060e+000  1.353613e+002
5.4329375000e+009  1.596002e+000 -1.264201e+002 -3.200506e+001  1.688915e+002  2.656749e+001  9.442016e+001 -8.253982e+000  1.353162e+002
5.4330625000e+009  1.600420e+000 -1.263007e+002 -3.211236e+001  1.699646e+002  2.652228e+001  9.434703e+001 -8.302950e+000  1.362261e+002
5.4331875000e+009  1.602966e+000 -1.262657e+002 -3.173350e+001  1.692969e+002  2.650787e+001  9.437560e+001 -8.365349e+000  1.359060e+002
5.4333125000e+009  1.501510e+000 -1.269687e+002 -3.236870e+001  1.650241e+002  2.670457e+001  9.418073e+001 -8.223824e+000  1.359379e+002
5.4334375000e+009  1.513604e+000 -1.270059e+002 -3.206593e+001  1.686420e+002  2.663812e+001  9.285641e+001 -8.284324e+000  1.355421e+002
5.4335625000e+009  1.520142e+000 -1.271099e+002 -3.179189e+001  1.678181e+002  2.660450e+001  9.291844e+001 -8.348686e+000  1.358381e+002
5.4336875000e+009  1.399998e+000 -1.276970e+002 -3.255803e+001  1.664458e+002  2.660442e+001  9.274416e+001 -8.347987e+000  1.361390e+002
5.4338125000e+009  1.526858e+000 -1.272279e+002 -3.177322e+001  1.681217e+002  2.668929e+001  9.223492e+001 -8.295006e+000  1.357704e+002
5.4339375000e+009  1.432965e+000 -1.275654e+002 -3.172345e+001  1.669462e+002  2.658770e+001  9.233596e+001 -8.367282e+000  1.360043e+002
5.4340625000e+009  1.324320e+000 -1.280185e+002 -3.213581e+001  1.668394e+002  2.673866e+001  9.183953e+001 -8.240218e+000  1.358146e+002
5.4341875000e+009  1.318464e+000 -1.281549e+002 -3.199620e+001  1.680992e+002  2.666968e+001  9.115994e+001 -8.398890e+000  1.360832e+002
5.4343125000e+009  1.273767e+000 -1.284129e+002 -3.225087e+001  1.633393e+002  2.668690e+001  9.124204e+001 -8.382566e+000  1.365985e+002
5.4344375000e+009  1.128414e+000 -1.285314e+002 -3.173505e+001  1.661448e+002  2.664192e+001  9.159711e+001 -8.287577e+000  1.364842e+002
5.4345625000e+009  1.216064e+000 -1.283465e+002 -3.149346e+001  1.667561e+002  2.668425e+001  9.014160e+001 -8.434447e+000  1.363175e+002
5.4346875000e+009  1.143890e+000 -1.293560e+002 -3.239359e+001  1.627894e+002  2.666132e+001  9.071809e+001 -8.369658e+000  1.367106e+002
5.4348125000e+009  1.052320e+000 -1.290444e+002 -3.187029e+001  1.691702e+002  2.672496e+001  9.070773e+001 -8.279631e+000  1.368014e+002
5.4349375000e+009  1.110720e+000 -1.291141e+002 -3.229499e+001  1.657970e+002  2.673583e+001  8.974992e+001 -8.334391e+000  1.369989e+002
5.4350625000e+009  1.058856e+000 -1.295535e+002 -3.225888e+001  1.651384e+002  2.662310e+001  8.944183e+001 -8.442224e+000  1.371840e+002
5.4351875000e+009  9.671275e-001 -1.303421e+002 -3.262534e+001  1.627087e+002  2.674966e+001  8.958406e+001 -8.326121e+000  1.375551e+002
5.4353125000e+009  9.673401e-001 -1.299301e+002 -3.224100e+001  1.647285e+002  2.674163e+001  8.903630e+001 -8.318991e+000  1.374166e+002
5.4354375000e+009  8.998773e-001 -1.299483e+002 -3.234444e+001  1.699254e+002  2.661604e+001  8.836040e+001 -8.391768e+000  1.366615e+002
5.4355625000e+009  8.320478e-001 -1.308732e+002 -3.284711e+001  1.670490e+002  2.668061e+001  8.882206e+001 -8.267184e+000  1.377234e+002
5.4356875000e+009  8.762527e-001 -1.301293e+002 -3.216121e+001  1.688856e+002  2.678059e+001  8.803912e+001 -8.265311e+000  1.367741e+002
5.4358125000e+009  8.337600e-001 -1.303224e+002 -3.191423e+001  1.671629e+002  2.664428e+001  8.777055e+001 -8.417562e+000  1.373118e+002
5.4359375000e+009  7.120022e-001 -1.308096e+002 -3.224836e+001  1.672587e+002  2.664754e+001  8.800800e+001 -8.378764e+000  1.377206e+002
5.4360625000e+009  7.414851e-001 -1.308578e+002 -3.219281e+001  1.648601e+002  2.680453e+001  8.817451e+001 -8.249573e+000  1.383466e+002
5.4361875000e+009  7.156109e-001 -1.308812e+002 -3.263307e+001  1.644271e+002  2.670113e+001  8.743977e+001 -8.334317e+000  1.386092e+002
5.4363125000e+009  6.231596e-001 -1.315152e+002 -3.260181e+001  1.641264e+002  2.665889e+001  8.611726e+001 -8.453311e+000  1.371627e+002
5.4364375000e+009  6.695941e-001 -1.314107e+002 -3.266638e+001  1.645103e+002  2.676467e+001  8.672278e+001 -8.277024e+000  1.380881e+002
5.4365625000e+009  6.450121e-001 -1.316067e+002 -3.206436e+001  1.630841e+002  2.674740e+001  8.626766e+001 -8.325263e+000  1.380721e+002
5.4366875000e+009  5.536962e-001 -1.317697e+002 -3.239805e+001  1.627285e+002  2.674899e+001  8.614982e+001 -8.333434e+000  1.384657e+002
5.4368125000e+009  5.599228e-001 -1.316965e+002 -3.229229e+001  1.658320e+002  2.689552e+001  8.545277e+001 -8.205465e+000  1.371744e+002
5.4369375000e+009  4.951606e-001 -1.319152e+002 -3.262923e+001  1.627665e+002  2.681500e+001  8.578867e+001 -8.212521e+000  1.391963e+002
5.4370625000e+009  4.452385e-001 -1.323938e+002 -3.278308e+001  1.617359e+002  2.681733e+001  8.619061e+001 -8.078916e+000  1.394887e+002
5.4371875000e+009  4.255102e-001 -1.322115e+002 -3.245029e+001  1.617346e+002  2.701234e+001  8.579867e+001 -7.945227e+000  1.384976e+002
5.4373125000e+009  3.870395e-001 -1.326072e+002 -3.267429e+001  1.612310e+002  2.663462e+001  8.395170e+001 -8.492023e+000  1.379121e+002
5.4374375000e+009  3.671085e-001 -1.327155e+002 -3.242526e+001  1.617915e+002  2.679332e+001  8.409951e+001 -8.243591e+000  1.380585e+002
5.4375625000e+009  3.222579e-001 -1.331322e+002 -3.316117e+001  1.592608e+002  2.700251e+001  8.361591e+001 -8.048936e+000  1.374105e+002
5.4376875000e+009  2.435458e-001 -1.331234e+002 -3.225000e+001  1.637834e+002  2.673722e+001  8.375952e+001 -8.326874e+000  1.385591e+002
5.4378125000e+009  2.353365e-001 -1.333407e+002 -3.257642e+001  1.658074e+002  2.673108e+001  8.355379e+001 -8.282130e+000  1.385639e+002
5.4379375000e+009  2.238208e-001 -1.336972e+002 -3.259573e+001  1.655075e+002  2.685966e+001  8.288213e+001 -8.202142e+000  1.375108e+002
5.4380625000e+009  2.056643e-001 -1.337328e+002 -3.295991e+001  1.622321e+002  2.675888e+001  8.322089e+001 -8.247879e+000  1.392967e+002
5.4381875000e+009  1.697933e-001 -1.340783e+002 -3.279027e+001  1.632199e+002  2.667705e+001  8.232133e+001 -8.376543e+000  1.382212e+002
5.4383125000e+009  1.576460e-001 -1.339701e+002 -3.272365e+001  1.629599e+002  2.681800e+001  8.189574e+001 -8.317547e+000  1.377059e+002
5.4384375000e+009  1.320989e-001 -1.345219e+002 -3.273969e+001  1.640982e+002  2.673466e+001  8.178853e+001 -8.341669e+000  1.385474e+002
5.4385625000e+009  1.335751e-001 -1.350036e+002 -3.240426e+001  1.580330e+002  2.668540e+001  8.191778e+001 -8.452544e+000  1.396402e+002
5.4386875000e+009  1.048935e-001 -1.350949e+002 -3.260153e+001  1.653282e+002  2.682227e+001  8.130509e+001 -8.292327e+000  1.380332e+002
5.4388125000e+009  1.361761e-001 -1.357274e+002 -3.281104e+001  1.596606e+002  2.684541e+001  8.115596e+001 -8.271954e+000  1.383309e+002
5.4389375000e+009  2.365422e-002 -1.358273e+002 -3.339501e+001  1.633227e+002  2.672826e+001  7.971223e+001 -8.553695e+000  1.370493e+002
5.4390625000e+009  8.262422e-002 -1.358478e+002 -3.205985e+001  1.607387e+002  2.682616e+001  8.123459e+001 -8.340865e+000  1.395152e+002
5.4391875000e+009  5.307990e-003 -1.365687e+002 -3.316072e+001  1.572896e+002  2.691702e+001  8.013393e+001 -8.122431e+000  1.382101e+002
5.4393125000e+009 -4.768382e-002 -1.363995e+002 -3.332037e+001  1.626556e+002  2.670348e+001  7.842802e+001 -8.559424e+000  1.366858e+002
5.4394375000e+009 -2.102014e-002 -1.367502e+002 -3.251511e+001  1.646906e+002  2.669197e+001  8.016249e+001 -8.538989e+000  1.394734e+002
5.4395625000e+009 -2.849018e-002 -1.370574e+002 -3.285837e+001  1.594609e+002  2.673807e+001  7.908240e+001 -8.464236e+000  1.382019e+002
5.4396875000e+009 -9.622835e-002 -1.372411e+002 -3.305181e+001  1.603833e+002  2.679244e+001  7.833112e+001 -8.471274e+000  1.369397e+002
5.4398125000e+009 -1.142747e-001 -1.374449e+002 -3.291018e+001  1.624684e+002  2.678646e+001  7.886952e+001 -8.350059e+000  1.383470e+002
5.4399375000e+009 -1.539969e-001 -1.378999e+002 -3.275708e+001  1.614640e+002  2.682570e+001  7.840092e+001 -8.282663e+000  1.376178e+002
5.4400625000e+009 -8.781556e-002 -1.384360e+002 -3.314567e+001  1.554436e+002  2.672161e+001  7.783691e+001 -8.452848e+000  1.382977e+002
5.4401875000e+009 -1.075271e-001 -1.387829e+002 -3.270460e+001  1.569515e+002  2.671918e+001  7.760598e+001 -8.533975e+000  1.378478e+002
5.4403125000e+009 -1.320828e-001 -1.390092e+002 -3.251586e+001  1.611728e+002  2.674601e+001  7.793858e+001 -8.328138e+000  1.387065e+002
5.4404375000e+009 -2.277289e-001 -1.386572e+002 -3.241368e+001  1.593996e+002  2.672294e+001  7.678243e+001 -8.551244e+000  1.375258e+002
5.4405625000e+009 -1.900825e-001 -1.390703e+002 -3.258273e+001  1.613418e+002  2.674094e+001  7.672999e+001 -8.495119e+000  1.375586e+002
5.4406875000e+009 -2.147379e-001 -1.398060e+002 -3.263867e+001  1.580526e+002  2.671416e+001  7.577589e+001 -8.566972e+000  1.371332e+002
5.4408125000e+009 -2.652296e-001 -1.395641e+002 -3.264424e+001  1.560447e+002  2.679491e+001  7.626041e+001 -8.273085e+000  1.375954e+002
5.4409375000e+009 -2.957442e-001 -1.397621e+002 -3.261261e+001  1.610632e+002  2.659709e+001  7.620318e+001 -8.706527e+000  1.391273e+002
5.4410625000e+009 -3.143678e-001 -1.407872e+002 -3.329610e+001  1.564044e+002  2.656117e+001  7.402299e+001 -8.909276e+000  1.360580e+002
5.4411875000e+009 -3.644678e-001 -1.403564e+002 -3.338662e+001  1.595809e+002  2.658075e+001  7.341048e+001 -8.947529e+000  1.351533e+002
5.4413125000e+009 -3.433997e-001 -1.405475e+002 -3.266327e+001  1.603566e+002  2.664845e+001  7.522378e+001 -8.540009e+000  1.386106e+002
5.4414375000e+009 -2.884832e-001 -1.413262e+002 -3.210305e+001  1.605836e+002  2.659601e+001  7.401183e+001 -8.714952e+000  1.362942e+002
5.4415625000e+009 -3.826736e-001 -1.412639e+002 -3.285674e+001  1.556227e+002  2.664692e+001  7.444191e+001 -8.634570e+000  1.383987e+002
5.4416875000e+009 -3.876637e-001 -1.413031e+002 -3.273125e+001  1.596935e+002  2.663744e+001  7.396838e+001 -8.602193e+000  1.374398e+002
5.4418125000e+009 -3.633635e-001 -1.420268e+002 -3.255951e+001  1.609724e+002  2.663227e+001  7.278926e+001 -8.755320e+000  1.351835e+002
5.4419375000e+009 -4.549718e-001 -1.421279e+002 -3.279907e+001  1.558057e+002  2.651252e+001  7.271202e+001 -9.013360e+000  1.368520e+002
5.4420625000e+009 -5.533081e-001 -1.414223e+002 -3.302029e+001  1.586925e+002  2.660988e+001  7.247764e+001 -8.742002e+000  1.358042e+002
5.4421875000e+009 -4.734148e-001 -1.431413e+002 -3.339008e+001  1.571026e+002  2.652057e+001  7.266338e+001 -8.729907e+000  1.372689e+002
5.4423125000e+009 -5.550025e-001 -1.428596e+002 -3.312436e+001  1.562608e+002  2.654453e+001  7.071336e+001 -9.023862e+000  1.336532e+002
5.4424375000e+009 -4.940850e-001 -1.428670e+002 -3.247380e+001  1.588343e+002  2.658631e+001  7.177114e+001 -8.761851e+000  1.359683e+002
5.4425625000e+009 -5.667653e-001 -1.434556e+002 -3.294268e+001  1.601706e+002  2.650010e+001  7.118108e+001 -8.911103e+000  1.355396e+002
5.4426875000e+009 -6.609401e-001 -1.430373e+002 -3.276604e+001  1.580654e+002  2.649092e+001  7.012009e+001 -9.172638e+000  1.341062e+002
5.4428125000e+009 -6.182309e-001 -1.437012e+002 -3.243257e+001  1.536774e+002  2.653782e+001  7.052197e+001 -8.944493e+000  1.356316e+002
5.4429375000e+009 -5.878589e-001 -1.441255e+002 -3.301781e+001  1.592876e+002  2.653176e+001  7.087148e+001 -8.710982e+000  1.364646e+002
5.4430625000e+009 -6.679463e-001 -1.439702e+002 -3.237366e+001  1.546694e+002  2.656080e+001  6.951131e+001 -9.023189e+000  1.335258e+002
5.4431875000e+009 -6.876819e-001 -1.446428e+002 -3.309775e+001  1.549861e+002  2.650331e+001  6.977667e+001 -8.901304e+000  1.351362e+002
5.4433125000e+009 -6.981218e-001 -1.444428e+002 -3.314952e+001  1.583438e+002  2.650023e+001  6.919405e+001 -8.966072e+000  1.344095e+002
5.4434375000e+009 -7.894754e-001 -1.447899e+002 -3.319065e+001  1.548533e+002  2.647771e+001  6.938419e+001 -8.835224e+000  1.361556e+002
5.4435625000e+009 -7.615713e-001 -1.450310e+002 -3.351770e+001  1.578989e+002  2.650465e+001  6.838425e+001 -9.001189e+000  1.331800e+002
5.4436875000e+009 -7.599216e-001 -1.451140e+002 -3.316025e+001  1.581702e+002  2.650618e+001  6.800391e+001 -9.035881e+000  1.332862e+002
5.4438125000e+009 -7.746011e-001 -1.459580e+002 -3.292992e+001  1.499376e+002  2.645636e+001  6.727743e+001 -9.150408e+000  1.330210e+002
5.4439375000e+009 -7.668192e-001 -1.455094e+002 -3.278995e+001  1.548572e+002  2.648100e+001  6.834246e+001 -8.859436e+000  1.355440e+002
5.4440625000e+009 -7.118591e-001 -1.458666e+002 -3.256807e+001  1.597485e+002  2.649002e+001  6.800732e+001 -8.961929e+000  1.353452e+002
5.4441875000e+009 -8.694328e-001 -1.460522e+002 -3.342197e+001  1.577167e+002  2.643416e+001  6.639653e+001 -9.295893e+000  1.316172e+002
5.4443125000e+009 -8.343943e-001 -1.461329e+002 -3.232053e+001  1.574028e+002  2.640336e+001  6.659101e+001 -9.307313e+000  1.321744e+002
5.4444375000e+009 -8.123745e-001 -1.469620e+002 -3.305632e+001  1.513845e+002  2.645868e+001  6.595076e+001 -9.047518e+000  1.315199e+002
5.4445625000e+009 -9.008226e-001 -1.469396e+002 -3.294997e+001  1.561922e+002  2.644241e+001  6.607561e+001 -9.067019e+000  1.319235e+002
5.4446875000e+009 -9.445149e-001 -1.468182e+002 -3.231269e+001  1.544478e+002  2.642277e+001  6.623787e+001 -9.008401e+000  1.342351e+002
5.4448125000e+009 -8.273334e-001 -1.470061e+002 -3.235966e+001  1.544542e+002  2.644343e+001  6.586069e+001 -9.003282e+000  1.339307e+002
5.4449375000e+009 -9.020060e-001 -1.475894e+002 -3.288916e+001  1.563893e+002  2.642910e+001  6.462911e+001 -9.233560e+000  1.297350e+002
5.4450625000e+009 -9.753026e-001 -1.483661e+002 -3.325466e+001  1.480672e+002  2.640314e+001  6.512089e+001 -8.826219e+000  1.331116e+002
5.4451875000e+009 -9.028574e-001 -1.475462e+002 -3.283364e+001  1.561277e+002  2.638624e+001  6.437784e+001 -9.177621e+000  1.311048e+002
5.4453125000e+009 -1.107292e+000 -1.482381e+002 -3.302973e+001  1.550244e+002  2.638593e+001  6.418842e+001 -9.128633e+000  1.307010e+002
5.4454375000e+009 -9.736108e-001 -1.488715e+002 -3.221719e+001  1.534834e+002  2.636017e+001  6.395603e+001 -9.169581e+000  1.316823e+002
5.4455625000e+009 -9.881045e-001 -1.490293e+002 -3.310681e+001  1.534828e+002  2.631514e+001  6.409960e+001 -9.086211e+000  1.340548e+002
5.4456875000e+009 -1.190605e+000 -1.485921e+002 -3.276347e+001  1.551559e+002  2.631882e+001  6.344830e+001 -9.173938e+000  1.310129e+002
5.4458125000e+009 -1.061461e+000 -1.496950e+002 -3.303806e+001  1.486540e+002  2.634943e+001  6.285240e+001 -8.941288e+000  1.299827e+002
5.4459375000e+009 -1.149066e+000 -1.494155e+002 -3.325402e+001  1.505003e+002  2.633981e+001  6.246171e+001 -9.092443e+000  1.285939e+002
5.4460625000e+009 -1.090203e+000 -1.495066e+002 -3.212601e+001  1.537119e+002  2.632127e+001  6.191047e+001 -9.260846e+000  1.284371e+002
5.4461875000e+009 -1.112373e+000 -1.496167e+002 -3.273932e+001  1.533797e+002  2.626149e+001  6.204958e+001 -9.285003e+000  1.298554e+002
5.4463125000e+009 -1.107242e+000 -1.497983e+002 -3.302943e+001  1.541842e+002  2.628508e+001  6.188593e+001 -9.211159e+000  1.303359e+002
5.4464375000e+009 -1.177006e+000 -1.501726e+002 -3.272289e+001  1.504465e+002  2.627981e+001  6.107849e+001 -9.214865e+000  1.283522e+002
5.4465625000e+009 -1.228102e+000 -1.502072e+002 -3.239014e+001  1.538874e+002  2.626830e+001  6.157137e+001 -9.261259e+000  1.308747e+002
5.4466875000e+009 -1.216191e+000 -1.505097e+002 -3.326465e+001  1.493418e+002  2.631100e+001  6.041135e+001 -8.749710e+000  1.277942e+002
5.4468125000e+009 -1.294061e+000 -1.504817e+002 -3.300034e+001  1.525375e+002  2.631100e+001  5.983818e+001 -8.927037e+000  1.253896e+002
5.4469375000e+009 -1.290667e+000 -1.510935e+002 -3.291912e+001  1.472921e+002  2.627036e+001  5.997798e+001 -8.873096e+000  1.278595e+002
5.4470625000e+009 -1.366974e+000 -1.514963e+002 -3.385514e+001  1.496704e+002  2.618053e+001  5.981812e+001 -9.044671e+000  1.274385e+002
5.4471875000e+009 -1.378739e+000 -1.516501e+002 -3.258136e+001  1.512914e+002  2.624362e+001  5.936935e+001 -9.087091e+000  1.270137e+002
5.4473125000e+009 -1.287898e+000 -1.515201e+002 -3.314695e+001  1.524930e+002  2.626755e+001  5.899892e+001 -9.060621e+000  1.253387e+002
5.4474375000e+009 -1.202085e+000 -1.520271e+002 -3.209718e+001  1.492352e+002  2.617233e+001  5.896307e+001 -9.320022e+000  1.301613e+002
5.4475625000e+009 -1.461769e+000 -1.516135e+002 -3.331070e+001  1.525836e+002  2.623797e+001  5.853254e+001 -9.003175e+000  1.261970e+002
5.4476875000e+009 -1.488187e+000 -1.519181e+002 -3.317259e+001  1.515316e+002  2.616654e+001  5.854610e+001 -9.274100e+000  1.278068e+002
5.4478125000e+009 -1.325336e+000 -1.521878e+002 -3.260219e+001  1.544851e+002  2.620950e+001  5.729277e+001 -8.967423e+000  1.244054e+002
5.4479375000e+009 -1.477424e+000 -1.524978e+002 -3.267598e+001  1.535696e+002  2.616900e+001  5.738924e+001 -9.102069e+000  1.255505e+002
5.4480625000e+009 -1.475182e+000 -1.527338e+002 -3.305338e+001  1.486935e+002  2.615077e+001  5.701234e+001 -8.965020e+000  1.239636e+002
5.4481875000e+009 -1.423080e+000 -1.534904e+002 -3.318866e+001  1.474339e+002  2.613793e+001  5.676143e+001 -9.101369e+000  1.249033e+002
5.4483125000e+009 -1.508669e+000 -1.535085e+002 -3.295980e+001  1.505285e+002  2.613745e+001  5.607660e+001 -8.944313e+000  1.230862e+002
5.4484375000e+009 -1.423731e+000 -1.536982e+002 -3.255627e+001  1.500108e+002  2.613146e+001  5.606584e+001 -9.039828e+000  1.234213e+002
5.4485625000e+009 -1.429957e+000 -1.537148e+002 -3.277946e+001  1.489622e+002  2.609009e+001  5.596654e+001 -9.193809e+000  1.236925e+002
5.4486875000e+009 -1.542452e+000 -1.541996e+002 -3.291277e+001  1.483152e+002  2.610024e+001  5.516313e+001 -8.882651e+000  1.215339e+002
5.4488125000e+009 -1.511005e+000 -1.541662e+002 -3.284706e+001  1.518237e+002  2.611441e+001  5.518570e+001 -8.897299e+000  1.225271e+002
5.4489375000e+009 -1.400053e+000 -1.545686e+002 -3.282572e+001  1.475701e+002  2.602863e+001  5.490409e+001 -9.063408e+000  1.221096e+002
5.4490625000e+009 -1.546994e+000 -1.547056e+002 -3.292832e+001  1.524845e+002  2.602211e+001  5.418026e+001 -8.995350e+000  1.183564e+002
5.4491875000e+009 -1.537853e+000 -1.551471e+002 -3.276328e+001  1.488133e+002  2.611425e+001  5.404316e+001 -8.908435e+000  1.219201e+002
5.4493125000e+009 -1.468809e+000 -1.552341e+002 -3.244310e+001  1.483119e+002  2.609425e+001  5.381224e+001 -9.165010e+000  1.237690e+002
5.4494375000e+009 -1.579685e+000 -1.557188e+002 -3.249263e+001  1.489892e+002  2.605663e+001  5.373969e+001 -9.115351e+000  1.212978e+002
5.4495625000e+009 -1.655084e+000 -1.560930e+002 -3.294971e+001  1.454255e+002  2.604107e+001  5.309445e+001 -8.935524e+000  1.196224e+002
5.4496875000e+009 -1.551630e+000 -1.560993e+002 -3.236365e+001  1.500150e+002  2.602155e+001  5.291246e+001 -9.105683e+000  1.201960e+002
5.4498125000e+009 -1.569959e+000 -1.562749e+002 -3.192603e+001  1.486425e+002  2.603604e+001  5.190449e+001 -8.935991e+000  1.204676e+002
5.4499375000e+009 -1.683522e+000 -1.568404e+002 -3.254871e+001  1.466223e+002  2.602002e+001  5.286021e+001 -9.092479e+000  1.194418e+002
5.4500625000e+009 -1.624894e+000 -1.567615e+002 -3.279967e+001  1.463855e+002  2.593756e+001  5.201486e+001 -8.930734e+000  1.183213e+002
5.4501875000e+009 -1.695531e+000 -1.574592e+002 -3.252089e+001  1.452479e+002  2.601290e+001  5.113211e+001 -8.679210e+000  1.187685e+002
5.4503125000e+009 -1.685351e+000 -1.575054e+002 -3.234206e+001  1.462484e+002  2.598786e+001  5.136982e+001 -9.109432e+000  1.202310e+002
5.4504375000e+009 -1.639932e+000 -1.573151e+002 -3.245550e+001  1.444822e+002  2.598236e+001  5.094249e+001 -9.046969e+000  1.195805e+002
5.4505625000e+009 -1.676281e+000 -1.577642e+002 -3.237189e+001  1.432782e+002  2.591987e+001  5.048235e+001 -8.686706e+000  1.173519e+002
5.4506875000e+009 -1.725408e+000 -1.577782e+002 -3.238437e+001  1.477811e+002  2.593691e+001  5.025835e+001 -8.760467e+000  1.162109e+002
5.4508125000e+009 -1.694312e+000 -1.577520e+002 -3.305323e+001  1.472907e+002  2.589244e+001  4.977040e+001 -8.719230e+000  1.149903e+002
5.4509375000e+009 -1.714182e+000 -1.580104e+002 -3.235254e+001  1.463570e+002  2.598840e+001  4.963229e+001 -8.872222e+000  1.172252e+002
5.4510625000e+009 -1.745166e+000 -1.584042e+002 -3.250084e+001  1.491058e+002  2.589043e+001  4.933548e+001 -8.841717e+000  1.155957e+002
5.4511875000e+009 -1.753753e+000 -1.581796e+002 -3.260625e+001  1.443803e+002  2.579005e+001  4.901388e+001 -8.744504e+000  1.145233e+002
5.4513125000e+009 -1.781174e+000 -1.583833e+002 -3.262315e+001  1.452732e+002  2.583482e+001  4.788078e+001 -8.527148e+000  1.141719e+002
5.4514375000e+009 -1.765325e+000 -1.586312e+002 -3.270803e+001  1.427378e+002  2.582650e+001  4.827529e+001 -8.635839e+000  1.139575e+002
5.4515625000e+009 -1.751964e+000 -1.583456e+002 -3.292248e+001  1.461687e+002  2.582370e+001  4.823399e+001 -8.814451e+000  1.137735e+002
5.4516875000e+009 -1.758472e+000 -1.585251e+002 -3.309115e+001  1.458364e+002  2.587003e+001  4.749866e+001 -8.668286e+000  1.135984e+002
5.4518125000e+009 -1.806258e+000 -1.590385e+002 -3.256498e+001  1.411621e+002  2.577625e+001  4.744455e+001 -8.435328e+000  1.126776e+002
5.4519375000e+009 -1.786684e+000 -1.587278e+002 -3.291856e+001  1.471655e+002  2.586338e+001  4.722258e+001 -8.830215e+000  1.131617e+002
5.4520625000e+009 -1.809796e+000 -1.590926e+002 -3.234341e+001  1.454760e+002  2.581227e+001  4.717759e+001 -8.828132e+000  1.122010e+002
5.4521875000e+009 -1.804183e+000 -1.594441e+002 -3.209945e+001  1.439764e+002  2.580835e+001  4.691381e+001 -8.786651e+000  1.121552e+002
5.4523125000e+009 -1.818075e+000 -1.593144e+002 -3.262319e+001  1.428967e+002  2.579067e+001  4.644799e+001 -8.782493e+000  1.115987e+002
5.4524375000e+009 -1.824021e+000 -1.595353e+002 -3.232073e+001  1.415712e+002  2.579753e+001  4.583820e+001 -8.574428e+000  1.115576e+002
5.4525625000e+009 -1.883435e+000 -1.597933e+002 -3.215172e+001  1.412438e+002  2.574592e+001  4.559612e+001 -8.514574e+000  1.112563e+002
5.4526875000e+009 -1.818047e+000 -1.597781e+002 -3.240954e+001  1.437864e+002  2.578248e+001  4.523483e+001 -8.620241e+000  1.110825e+002
5.4528125000e+009 -1.881521e+000 -1.598582e+002 -3.269554e+001  1.419870e+002  2.578299e+001  4.417851e+001 -8.432460e+000  1.094766e+002
5.4529375000e+009 -1.901224e+000 -1.602696e+002 -3.235959e+001  1.398895e+002  2.579247e+001  4.515622e+001 -8.615613e+000  1.103057e+002
5.4530625000e+009 -1.901823e+000 -1.602366e+002 -3.269089e+001  1.430110e+002  2.575488e+001  4.462193e+001 -8.727226e+000  1.092288e+002
5.4531875000e+009 -1.911345e+000 -1.602939e+002 -3.249232e+001  1.433884e+002  2.571259e+001  4.359602e+001 -8.437723e+000  1.088102e+002
5.4533125000e+009 -1.909038e+000 -1.603360e+002 -3.200435e+001  1.429573e+002  2.570320e+001  4.403677e+001 -8.560801e+000  1.083974e+002
5.4534375000e+009 -1.909082e+000 -1.606358e+002 -3.264517e+001  1.410084e+002  2.571948e+001  4.380614e+001 -8.544080e+000  1.080756e+002
5.4535625000e+009 -1.901789e+000 -1.608189e+002 -3.246196e+001  1.390927e+002  2.578832e+001  4.254140e+001 -8.340806e+000  1.076755e+002
5.4536875000e+009 -1.903334e+000 -1.608693e+002 -3.194580e+001  1.429376e+002  2.582298e+001  4.319132e+001 -8.654015e+000  1.079578e+002
5.4538125000e+009 -1.945224e+000 -1.610062e+002 -3.225290e+001  1.397159e+002  2.572212e+001  4.310513e+001 -8.510208e+000  1.071542e+002
5.4539375000e+009 -1.963838e+000 -1.610669e+002 -3.243245e+001  1.379886e+002  2.566318e+001  4.201930e+001 -8.290279e+000  1.061124e+002
5.4540625000e+009 -1.942577e+000 -1.612712e+002 -3.220703e+001  1.433587e+002  2.565544e+001  4.223902e+001 -8.466537e+000  1.060539e+002
5.4541875000e+009 -1.995798e+000 -1.614419e+002 -3.277471e+001  1.380215e+002  2.573594e+001  4.239540e+001 -8.415999e+000  1.060747e+002
5.4543125000e+009 -2.000427e+000 -1.612825e+002 -3.274779e+001  1.418479e+002  2.569579e+001  4.076846e+001 -8.349082e+000  1.043162e+002
5.4544375000e+009 -1.921394e+000 -1.620612e+002 -3.209665e+001  1.418486e+002  2.567879e+001  4.056537e+001 -8.377430e+000  1.044371e+002
5.4545625000e+009 -2.038664e+000 -1.618569e+002 -3.289781e+001  1.393831e+002  2.566561e+001  4.161509e+001 -8.395806e+000  1.036810e+002
5.4546875000e+009 -2.065006e+000 -1.621141e+002 -3.188115e+001  1.382696e+002  2.560764e+001  4.004637e+001 -8.316863e+000  1.039348e+002
5.4548125000e+009 -2.049668e+000 -1.623075e+002 -3.281872e+001  1.377988e+002  2.564315e+001  4.058609e+001 -8.244928e+000  1.026989e+002
5.4549375000e+009 -2.042565e+000 -1.625886e+002 -3.161984e+001  1.395114e+002  2.566554e+001  4.050411e+001 -8.451804e+000  1.039763e+002
5.4550625000e+009 -2.073377e+000 -1.623067e+002 -3.249837e+001  1.416001e+002  2.567964e+001  3.853425e+001 -8.227914e+000  1.015024e+002
5.4551875000e+009 -2.084374e+000 -1.622321e+002 -3.281292e+001  1.352347e+002  2.563988e+001  3.950265e+001 -8.134662e+000  1.016422e+002
5.4553125000e+009 -2.007756e+000 -1.627844e+002 -3.266823e+001  1.362270e+002  2.563500e+001  3.864807e+001 -8.157020e+000  1.012398e+002
5.4554375000e+009 -2.054363e+000 -1.627242e+002 -3.230400e+001  1.376016e+002  2.556778e+001  3.823180e+001 -8.160358e+000  1.010792e+002
5.4555625000e+009 -2.176481e+000 -1.624281e+002 -3.278962e+001  1.343671e+002  2.561536e+001  3.788683e+001 -8.022445e+000  1.001002e+002
5.4556875000e+009 -2.142548e+000 -1.630396e+002 -3.218932e+001  1.335284e+002  2.566887e+001  3.879880e+001 -8.069424e+000  1.007287e+002
5.4558125000e+009 -2.110316e+000 -1.636631e+002 -3.166992e+001  1.342158e+002  2.555328e+001  3.759330e+001 -7.961408e+000  1.005186e+002
5.4559375000e+009 -2.147487e+000 -1.630310e+002 -3.243139e+001  1.325492e+002  2.562192e+001  3.757913e+001 -8.002847e+000  9.963551e+001
5.4560625000e+009 -1.977191e+000 -1.635313e+002 -3.251640e+001  1.375985e+002  2.548321e+001  3.718272e+001 -8.128232e+000  9.905682e+001
5.4561875000e+009 -2.087413e+000 -1.630440e+002 -3.223070e+001  1.371119e+002  2.552998e+001  3.553276e+001 -7.972606e+000  9.800628e+001
5.4563125000e+009 -2.177818e+000 -1.635138e+002 -3.221377e+001  1.362943e+002  2.547450e+001  3.617323e+001 -8.060601e+000  9.790002e+001
5.4564375000e+009 -2.089367e+000 -1.637819e+002 -3.181014e+001  1.387447e+002  2.550051e+001  3.706810e+001 -8.076365e+000  9.850509e+001
5.4565625000e+009 -2.131871e+000 -1.638351e+002 -3.217312e+001  1.371978e+002  2.549969e+001  3.591349e+001 -7.929142e+000  9.689864e+001
5.4566875000e+009 -2.193279e+000 -1.637639e+002 -3.225540e+001  1.338732e+002  2.554959e+001  3.526641e+001 -7.796392e+000  9.653461e+001
5.4568125000e+009 -2.149261e+000 -1.651769e+002 -3.220699e+001  1.343599e+002  2.544834e+001  3.579249e+001 -7.846092e+000  9.677885e+001
5.4569375000e+009 -2.169567e+000 -1.648248e+002 -3.269246e+001  1.370289e+002  2.550358e+001  3.418647e+001 -7.801616e+000  9.489941e+001
5.4570625000e+009 -2.138767e+000 -1.649828e+002 -3.225819e+001  1.338636e+002  2.548655e+001  3.438104e+001 -7.706746e+000  9.535075e+001
5.4571875000e+009 -2.222250e+000 -1.647070e+002 -3.237278e+001  1.340474e+002  2.545741e+001  3.429391e+001 -7.776889e+000  9.461009e+001
5.4573125000e+009 -2.195087e+000 -1.652228e+002 -3.227098e+001  1.332175e+002  2.539776e+001  3.323049e+001 -7.707642e+000  9.409574e+001
5.4574375000e+009 -2.243863e+000 -1.646877e+002 -3.325257e+001  1.324234e+002  2.541669e+001  3.340214e+001 -7.551168e+000  9.295591e+001
5.4575625000e+009 -2.252946e+000 -1.650074e+002 -3.229939e+001  1.348790e+002  2.532948e+001  3.442100e+001 -7.783424e+000  9.444916e+001
5.4576875000e+009 -2.200269e+000 -1.663764e+002 -3.184660e+001  1.368595e+002  2.539483e+001  3.252701e+001 -7.657835e+000  9.313978e+001
5.4578125000e+009 -2.271740e+000 -1.646308e+002 -3.202613e+001  1.326106e+002  2.538649e+001  3.236743e+001 -7.666831e+000  9.282837e+001
5.4579375000e+009 -2.229582e+000 -1.660563e+002 -3.169326e+001  1.344995e+002  2.535680e+001  3.252933e+001 -7.631238e+000  9.249835e+001
5.4580625000e+009 -2.218579e+000 -1.657512e+002 -3.171627e+001  1.388719e+002  2.534027e+001  3.177039e+001 -7.800733e+000  9.232767e+001
5.4581875000e+009 -2.378753e+000 -1.661184e+002 -3.208403e+001  1.312015e+002  2.535359e+001  3.147458e+001 -7.456283e+000  9.111723e+001
5.4583125000e+009 -2.347888e+000 -1.659931e+002 -3.168700e+001  1.292505e+002  2.534681e+001  3.149300e+001 -7.404047e+000  9.154996e+001
5.4584375000e+009 -2.471800e+000 -1.664022e+002 -3.154008e+001  1.263831e+002  2.532216e+001  3.072415e+001 -7.337039e+000  9.100760e+001
5.4585625000e+009 -2.558395e+000 -1.658736e+002 -3.246055e+001  1.314189e+002  2.536621e+001  3.054809e+001 -7.350973e+000  8.973911e+001
5.4586875000e+009 -2.374958e+000 -1.658038e+002 -3.316270e+001  1.280892e+002  2.533463e+001  3.039856e+001 -7.293482e+000  8.913018e+001
5.4588125000e+009 -2.393774e+000 -1.663485e+002 -3.248476e+001  1.314166e+002  2.535293e+001  2.949044e+001 -7.231722e+000  8.853638e+001
5.4589375000e+009 -2.448851e+000 -1.669477e+002 -3.175482e+001  1.339722e+002  2.526504e+001  2.943506e+001 -7.404419e+000  8.903296e+001
5.4590625000e+009 -2.222775e+000 -1.682262e+002 -3.190788e+001  1.315713e+002  2.525722e+001  2.977178e+001 -7.270379e+000  8.889138e+001
5.4591875000e+009 -2.364444e+000 -1.664472e+002 -3.229502e+001  1.294079e+002  2.528817e+001  2.841530e+001 -7.142054e+000  8.705085e+001
5.4593125000e+009 -2.483027e+000 -1.665766e+002 -3.263680e+001  1.317579e+002  2.528367e+001  2.832512e+001 -7.222606e+000  8.654697e+001
5.4594375000e+009 -2.236681e+000 -1.666779e+002 -3.268641e+001  1.309593e+002  2.521052e+001  2.884524e+001 -7.113149e+000  8.716390e+001
5.4595625000e+009 -2.309092e+000 -1.681732e+002 -3.265622e+001  1.335905e+002  2.519320e+001  2.812969e+001 -7.199479e+000  8.595802e+001
5.4596875000e+009 -2.444270e+000 -1.671611e+002 -3.211137e+001  1.302577e+002  2.525133e+001  2.757373e+001 -6.950829e+000  8.581100e+001
5.4598125000e+009 -2.202566e+000 -1.685915e+002 -3.211386e+001  1.293885e+002  2.514458e+001  2.767306e+001 -7.047829e+000  8.612682e+001
5.4599375000e+009 -2.502740e+000 -1.681095e+002 -3.163184e+001  1.269598e+002  2.516890e+001  2.717035e+001 -6.993188e+000  8.610492e+001
5.4600625000e+009 -2.610994e+000 -1.677433e+002 -3.237458e+001  1.274255e+002  2.517070e+001  2.692593e+001 -7.022992e+000  8.505779e+001
5.4601875000e+009 -2.479897e+000 -1.679486e+002 -3.257783e+001  1.214850e+002  2.515231e+001  2.659325e+001 -6.693665e+000  8.465347e+001
5.4603125000e+009 -2.382310e+000 -1.685847e+002 -3.189869e+001  1.269989e+002  2.509738e+001  2.594906e+001 -6.935672e+000  8.399820e+001
5.4604375000e+009 -2.862622e+000 -1.686591e+002 -3.134939e+001  1.255371e+002  2.516057e+001  2.526204e+001 -6.643165e+000  8.384196e+001
5.4605625000e+009 -2.279936e+000 -1.689906e+002 -3.304186e+001  1.267359e+002  2.502298e+001  2.593029e+001 -6.735980e+000  8.403218e+001
5.4606875000e+009 -2.418380e+000 -1.698101e+002 -3.124229e+001  1.253993e+002  2.506615e+001  2.489388e+001 -6.673474e+000  8.291383e+001
5.4608125000e+009 -2.605079e+000 -1.688314e+002 -3.208740e+001  1.276482e+002  2.505972e+001  2.442995e+001 -6.695257e+000  8.197765e+001
5.4609375000e+009 -2.517421e+000 -1.689834e+002 -3.251485e+001  1.251065e+002  2.506188e+001  2.455200e+001 -6.614521e+000  8.218066e+001
5.4610625000e+009 -2.551089e+000 -1.692497e+002 -3.191612e+001  1.274885e+002  2.500419e+001  2.365136e+001 -6.635370e+000  8.083321e+001
5.4611875000e+009 -2.797344e+000 -1.696252e+002 -3.245482e+001  1.252010e+002  2.506811e+001  2.353120e+001 -6.638435e+000  8.004670e+001
5.4613125000e+009 -2.500033e+000 -1.701583e+002 -3.196924e+001  1.259409e+002  2.496731e+001  2.354107e+001 -6.533751e+000  8.117633e+001
5.4614375000e+009 -2.570606e+000 -1.705012e+002 -3.141765e+001  1.244064e+002  2.501672e+001  2.298192e+001 -6.437582e+000  8.140857e+001
5.4615625000e+009 -2.688448e+000 -1.699576e+002 -3.198486e+001  1.269580e+002  2.498499e+001  2.288799e+001 -6.556660e+000  8.046165e+001
5.4616875000e+009 -2.705345e+000 -1.702806e+002 -3.162131e+001  1.227064e+002  2.497181e+001  2.278694e+001 -6.454644e+000  8.089106e+001
5.4618125000e+009 -2.567911e+000 -1.710239e+002 -3.150443e+001  1.197950e+002  2.492769e+001  2.170543e+001 -6.169052e+000  7.913537e+001
5.4619375000e+009 -2.685334e+000 -1.704941e+002 -3.141090e+001  1.229153e+002  2.496035e+001  2.140335e+001 -6.319045e+000  7.833376e+001
5.4620625000e+009 -2.680776e+000 -1.703058e+002 -3.221812e+001  1.190732e+002  2.491339e+001  2.170734e+001 -6.274227e+000  7.854342e+001
5.4621875000e+009 -2.585313e+000 -1.696865e+002 -3.253865e+001  1.234375e+002  2.492333e+001  2.077942e+001 -6.213151e+000  7.726952e+001
5.4623125000e+009 -2.783613e+000 -1.702301e+002 -3.192513e+001  1.206989e+002  2.490203e+001  2.062015e+001 -6.214704e+000  7.747529e+001
5.4624375000e+009 -2.525067e+000 -1.703734e+002 -3.238498e+001  1.211705e+002  2.483997e+001  1.995868e+001 -6.101153e+000  7.621944e+001
5.4625625000e+009 -2.689153e+000 -1.711174e+002 -3.204538e+001  1.239454e+002  2.489705e+001  1.990644e+001 -6.167787e+000  7.686662e+001
5.4626875000e+009 -2.875138e+000 -1.712405e+002 -3.184029e+001  1.181249e+002  2.487154e+001  1.976307e+001 -6.034140e+000  7.622176e+001
5.4628125000e+009 -2.627797e+000 -1.708669e+002 -3.204417e+001  1.211356e+002  2.483108e+001  1.945562e+001 -6.081521e+000  7.585861e+001
5.4629375000e+009 -2.577327e+000 -1.709564e+002 -3.221721e+001  1.197899e+002  2.479892e+001  1.850555e+001 -5.912666e+000  7.504295e+001
5.4630625000e+009 -2.979872e+000 -1.708919e+002 -3.235649e+001  1.167515e+002  2.486816e+001  1.887807e+001 -5.980208e+000  7.523155e+001
5.4631875000e+009 -2.778746e+000 -1.719036e+002 -3.267491e+001  1.258211e+002  2.482297e+001  1.848661e+001 -6.121493e+000  7.555617e+001
5.4633125000e+009 -2.577292e+000 -1.717162e+002 -3.212490e+001  1.199144e+002  2.473654e+001  1.806732e+001 -6.004016e+000  7.394528e+001
5.4634375000e+009 -3.036121e+000 -1.727177e+002 -3.180055e+001  1.202477e+002  2.481970e+001  1.786514e+001 -5.955857e+000  7.470783e+001
5.4635625000e+009 -2.778006e+000 -1.724932e+002 -3.223593e+001  1.217907e+002  2.481856e+001  1.764504e+001 -6.053349e+000  7.474624e+001
5.4636875000e+009 -2.901484e+000 -1.722585e+002 -3.191462e+001  1.178269e+002  2.476315e+001  1.667004e+001 -5.775468e+000  7.381232e+001
5.4638125000e+009 -3.204419e+000 -1.736769e+002 -3.160650e+001  1.189043e+002  2.476180e+001  1.715985e+001 -5.897513e+000  7.372945e+001
5.4639375000e+009 -2.833632e+000 -1.729012e+002 -3.200784e+001  1.166709e+002  2.478299e+001  1.643939e+001 -5.775921e+000  7.386526e+001
5.4640625000e+009 -2.955669e+000 -1.728000e+002 -3.194093e+001  1.170256e+002  2.472939e+001  1.596477e+001 -5.716789e+000  7.233279e+001
5.4641875000e+009 -3.146696e+000 -1.749382e+002 -3.255223e+001  1.174965e+002  2.478047e+001  1.584261e+001 -5.676713e+000  7.157204e+001
5.4643125000e+009 -2.979319e+000 -1.734390e+002 -3.277359e+001  1.184830e+002  2.471898e+001  1.533426e+001 -5.791633e+000  7.221041e+001
5.4644375000e+009 -3.092805e+000 -1.737509e+002 -3.243797e+001  1.181257e+002  2.473463e+001  1.508939e+001 -5.715762e+000  7.175137e+001
5.4645625000e+009 -3.258347e+000 -1.748957e+002 -3.160090e+001  1.175764e+002  2.473777e+001  1.473770e+001 -5.629414e+000  7.248640e+001
5.4646875000e+009 -2.920218e+000 -1.732109e+002 -3.186283e+001  1.180733e+002  2.468638e+001  1.429921e+001 -5.682340e+000  7.153066e+001
5.4648125000e+009 -2.889793e+000 -1.726882e+002 -3.211682e+001  1.164289e+002  2.462849e+001  1.422358e+001 -5.753004e+000  7.049659e+001
5.4649375000e+009 -3.135343e+000 -1.746459e+002 -3.239743e+001  1.176146e+002  2.470716e+001  1.347674e+001 -5.557822e+000  7.056135e+001
5.4650625000e+009 -3.106296e+000 -1.735696e+002 -3.208871e+001  1.161670e+002  2.464475e+001  1.389136e+001 -5.677414e+000  7.005042e+001
5.4651875000e+009 -3.062241e+000 -1.732113e+002 -3.204871e+001  1.149943e+002  2.461842e+001  1.298179e+001 -5.507300e+000  6.996673e+001
5.4653125000e+009 -3.419474e+000 -1.753589e+002 -3.221935e+001  1.140838e+002  2.469118e+001  1.246718e+001 -5.397946e+000  6.988445e+001
5.4654375000e+009 -3.338420e+000 -1.755186e+002 -3.242223e+001  1.120914e+002  2.465698e+001  1.251696e+001 -5.424005e+000  6.918049e+001
5.4655625000e+009 -3.087022e+000 -1.748360e+002 -3.177110e+001  1.148372e+002  2.459022e+001  1.238495e+001 -5.610612e+000  6.965770e+001
5.4656875000e+009 -3.507648e+000 -1.765773e+002 -3.186813e+001  1.146942e+002  2.465839e+001  1.282798e+001 -5.707240e+000  6.939749e+001
5.4658125000e+009 -3.348595e+000 -1.752261e+002 -3.188660e+001  1.117206e+002  2.462413e+001  1.199010e+001 -5.549416e+000  6.900282e+001
5.4659375000e+009 -3.339571e+000 -1.749777e+002 -3.261989e+001  1.105354e+002  2.465381e+001  1.101082e+001 -5.313607e+000  6.802482e+001
5.4660625000e+009 -3.442248e+000 -1.766639e+002 -3.183192e+001  1.124957e+002  2.463345e+001  1.100211e+001 -5.469004e+000  6.895903e+001
5.4661875000e+009 -3.448937e+000 -1.768562e+002 -3.179284e+001  1.121050e+002  2.451336e+001  1.027162e+001 -5.297193e+000  6.756456e+001
5.4663125000e+009 -3.438660e+000 -1.764062e+002 -3.182197e+001  1.099138e+002  2.449017e+001  9.499680e+000 -5.191342e+000  6.700615e+001
5.4664375000e+009 -3.675859e+000 -1.764010e+002 -3.218504e+001  1.093860e+002  2.452855e+001  9.941100e+000 -5.293383e+000  6.639619e+001
5.4665625000e+009 -3.589109e+000 -1.768021e+002 -3.193408e+001  1.100939e+002  2.450527e+001  9.375732e+000 -5.233047e+000  6.683418e+001
5.4666875000e+009 -3.494665e+000 -1.766167e+002 -3.176615e+001  1.110508e+002  2.450358e+001  9.155335e+000 -5.319184e+000  6.663163e+001
5.4668125000e+009 -3.792299e+000 -1.783464e+002 -3.164528e+001  1.096337e+002  2.447361e+001  8.267267e+000 -5.132590e+000  6.622649e+001
5.4669375000e+009 -3.612410e+000 -1.781645e+002 -3.128340e+001  1.108642e+002  2.458187e+001  8.652905e+000 -5.241661e+000  6.729126e+001
5.4670625000e+009 -3.516729e+000 -1.766490e+002 -3.167608e+001  1.079922e+002  2.448358e+001  8.556912e+000 -5.317878e+000  6.600789e+001
5.4671875000e+009 -3.727017e+000 -1.776757e+002 -3.211303e+001  1.086712e+002  2.450966e+001  7.708587e+000 -5.233240e+000  6.526683e+001
5.4673125000e+009 -3.617964e+000 -1.781781e+002 -3.210448e+001  1.123005e+002  2.441812e+001  7.623034e+000 -5.313138e+000  6.484279e+001
5.4674375000e+009 -3.513195e+000 -1.769307e+002 -3.203258e+001  1.092741e+002  2.439844e+001  5.891562e+000 -5.048275e+000  6.459538e+001
5.4675625000e+009 -3.824239e+000 -1.788309e+002 -3.235807e+001  1.076441e+002  2.435565e+001  6.439676e+000 -5.082058e+000  6.335667e+001
5.4676875000e+009 -3.644182e+000 -1.779506e+002 -3.237646e+001  1.108803e+002  2.433450e+001  6.346153e+000 -5.283351e+000  6.326269e+001
5.4678125000e+009 -3.706017e+000 -1.778949e+002 -3.178727e+001  1.085148e+002  2.445361e+001  5.519208e+000 -5.120839e+000  6.427653e+001
5.4679375000e+009 -3.766296e+000 -1.783508e+002 -3.162768e+001  1.044528e+002  2.439539e+001  4.840894e+000 -4.956476e+000  6.363830e+001
5.4680625000e+009 -3.790081e+000 -1.782673e+002 -3.175752e+001  1.044529e+002  2.432447e+001  6.020051e+000 -5.155504e+000  6.267970e+001
5.4681875000e+009 -3.799089e+000 -1.780171e+002 -3.139489e+001  1.068414e+002  2.431605e+001  4.330636e+000 -5.049909e+000  6.294462e+001
5.4683125000e+009 -3.861591e+000 -1.790448e+002 -3.237947e+001  1.076798e+002  2.427142e+001  4.277444e+000 -5.157505e+000  6.156869e+001
5.4684375000e+009 -3.883535e+000 -1.797729e+002 -3.209365e+001  1.060518e+002  2.431552e+001  4.646918e+000 -5.169475e+000  6.181012e+001
5.4685625000e+009 -3.830482e+000 -1.781529e+002 -3.208411e+001  1.035696e+002  2.426100e+001  2.642038e+000 -4.907034e+000  6.124899e+001
5.4686875000e+009 -3.867264e+000 -1.793398e+002 -3.271843e+001  1.048296e+002  2.417227e+001  3.062996e+000 -5.059955e+000  5.984683e+001
5.4688125000e+009 -3.904853e+000 -1.795306e+002 -3.271135e+001  1.016937e+002  2.425211e+001  3.089531e+000 -5.031406e+000  5.981683e+001
5.4689375000e+009 -3.957808e+000 -1.789606e+002 -3.209521e+001  1.018782e+002  2.427558e+001  2.167316e+000 -4.983382e+000  6.035844e+001
5.4690625000e+009 -3.992276e+000  1.796162e+002 -3.180223e+001  1.033368e+002  2.417003e+001  2.339326e+000 -5.022153e+000  5.987214e+001
5.4691875000e+009 -4.032661e+000  1.793575e+002 -3.265284e+001  1.048425e+002  2.416881e+001  1.677221e+000 -5.117850e+000  5.890139e+001
5.4693125000e+009 -3.843130e+000 -1.798445e+002 -3.218651e+001  1.076384e+002  2.410570e+001  1.665747e+000 -5.187300e+000  5.888841e+001
5.4694375000e+009 -4.093994e+000  1.793623e+002 -3.133149e+001  1.011388e+002  2.418679e+001  8.376485e-001 -4.917183e+000  5.957108e+001
5.4695625000e+009 -3.999957e+000  1.797670e+002 -3.205834e+001  1.040990e+002  2.408695e+001  8.369485e-001 -5.099279e+000  5.812373e+001
5.4696875000e+009 -4.043054e+000  1.794437e+002 -3.183719e+001  1.002189e+002  2.403137e+001  9.699680e-001 -5.002925e+000  5.759118e+001
5.4698125000e+009 -4.019544e+000  1.791030e+002 -3.211769e+001  9.908402e+001  2.408576e+001 -2.870130e-002 -4.961004e+000  5.745516e+001
5.4699375000e+009 -4.082038e+000  1.791399e+002 -3.183028e+001  9.984673e+001  2.404959e+001 -1.088581e+000 -4.934599e+000  5.726687e+001
5.4700625000e+009 -4.077697e+000  1.796819e+002 -3.234362e+001  9.900980e+001  2.394754e+001 -3.573209e-001 -5.077725e+000  5.589854e+001
5.4701875000e+009 -4.183585e+000  1.784030e+002 -3.168356e+001  1.017348e+002  2.394775e+001 -1.048058e+000 -5.048232e+000  5.657707e+001
5.4703125000e+009 -4.117455e+000  1.787632e+002 -3.195256e+001  9.847408e+001  2.397008e+001 -1.955976e+000 -4.980074e+000  5.582046e+001
5.4704375000e+009 -4.154409e+000  1.786487e+002 -3.222623e+001  9.601941e+001  2.381912e+001 -1.570906e+000 -5.007205e+000  5.431562e+001
5.4705625000e+009 -4.170483e+000  1.787388e+002 -3.228100e+001  9.933324e+001  2.379927e+001 -3.129805e+000 -4.985079e+000  5.413185e+001
5.4706875000e+009 -4.121723e+000  1.784248e+002 -3.277997e+001  9.992184e+001  2.377227e+001 -2.216703e+000 -5.207412e+000  5.333540e+001
5.4708125000e+009 -4.182458e+000  1.782367e+002 -3.212554e+001  9.971119e+001  2.384377e+001 -3.969837e+000 -5.050094e+000  5.432785e+001
5.4709375000e+009 -4.160080e+000  1.779046e+002 -3.229573e+001  1.002417e+002  2.367637e+001 -3.945599e+000 -5.116645e+000  5.282637e+001
5.4710625000e+009 -4.254607e+000  1.776086e+002 -3.160261e+001  9.512663e+001  2.377875e+001 -4.471670e+000 -4.980142e+000  5.320976e+001
5.4711875000e+009 -4.191607e+000  1.782044e+002 -3.232001e+001  9.332819e+001  2.372119e+001 -4.715559e+000 -5.023748e+000  5.198557e+001
5.4713125000e+009 -4.255143e+000  1.778094e+002 -3.205980e+001  9.432998e+001  2.368864e+001 -5.487054e+000 -5.019968e+000  5.163763e+001
5.4714375000e+009 -4.259657e+000  1.771986e+002 -3.227754e+001  9.669244e+001  2.368132e+001 -5.940670e+000 -5.117089e+000  5.152316e+001
5.4715625000e+009 -4.255544e+000  1.770882e+002 -3.172849e+001  9.572356e+001  2.361867e+001 -6.209081e+000 -5.066111e+000  5.136978e+001
5.4716875000e+009 -4.366705e+000  1.768087e+002 -3.210049e+001  9.607245e+001  2.368655e+001 -6.479040e+000 -5.178257e+000  5.101846e+001
5.4718125000e+009 -4.388126e+000  1.766868e+002 -3.169714e+001  9.319738e+001  2.363316e+001 -6.308548e+000 -5.126487e+000  5.067165e+001
5.4719375000e+009 -4.228934e+000  1.768782e+002 -3.206487e+001  9.385354e+001  2.364472e+001 -7.417571e+000 -5.142972e+000  5.040087e+001
5.4720625000e+009 -4.333178e+000  1.766043e+002 -3.195037e+001  9.365438e+001  2.349989e+001 -8.011430e+000 -5.143128e+000  4.941170e+001
5.4721875000e+009 -4.369268e+000  1.761965e+002 -3.221210e+001  9.224693e+001  2.348723e+001 -7.594717e+000 -5.244389e+000  4.843645e+001
5.4723125000e+009 -4.364497e+000  1.762039e+002 -3.250441e+001  9.414977e+001  2.343831e+001 -7.721794e+000 -5.340873e+000  4.807780e+001
5.4724375000e+009 -4.386625e+000  1.762005e+002 -3.203786e+001  8.922742e+001  2.344419e+001 -8.615832e+000 -5.216228e+000  4.759452e+001
5.4725625000e+009 -4.455081e+000  1.759304e+002 -3.222927e+001  9.205806e+001  2.338293e+001 -8.727627e+000 -5.382858e+000  4.711861e+001
5.4726875000e+009 -4.338160e+000  1.758632e+002 -3.210744e+001  8.910415e+001  2.334265e+001 -9.767152e+000 -5.242061e+000  4.639983e+001
5.4728125000e+009 -4.534023e+000  1.765593e+002 -3.211979e+001  8.599512e+001  2.329068e+001 -1.010879e+001 -5.276321e+000  4.547007e+001
5.4729375000e+009 -4.588484e+000  1.761637e+002 -3.191710e+001  8.698348e+001  2.326537e+001 -1.036917e+001 -5.337867e+000  4.529644e+001
5.4730625000e+009 -4.329576e+000  1.757773e+002 -3.228657e+001  8.581767e+001  2.323544e+001 -1.125211e+001 -5.324694e+000  4.432426e+001
5.4731875000e+009 -4.463878e+000  1.754768e+002 -3.233126e+001  8.700507e+001  2.332159e+001 -1.179254e+001 -5.432636e+000  4.496200e+001
5.4733125000e+009 -4.495107e+000  1.747164e+002 -3.255326e+001  9.091565e+001  2.322781e+001 -1.216433e+001 -5.573979e+000  4.424549e+001
5.4734375000e+009 -4.452751e+000  1.752116e+002 -3.230121e+001  8.497641e+001  2.309624e+001 -1.214562e+001 -5.484193e+000  4.295210e+001
5.4735625000e+009 -4.698258e+000  1.748130e+002 -3.146347e+001  8.552766e+001  2.313723e+001 -1.269816e+001 -5.450879e+000  4.345574e+001
5.4736875000e+009 -4.540885e+000  1.744556e+002 -3.245007e+001  8.935257e+001  2.307555e+001 -1.377385e+001 -5.643262e+000  4.246051e+001
5.4738125000e+009 -4.381168e+000  1.741338e+002 -3.260754e+001  8.624461e+001  2.289891e+001 -1.244009e+001 -5.807313e+000  4.114718e+001
5.4739375000e+009 -4.639465e+000  1.745784e+002 -3.228138e+001  8.158586e+001  2.298437e+001 -1.386203e+001 -5.783047e+000  4.071693e+001
5.4740625000e+009 -4.722428e+000  1.742598e+002 -3.262878e+001  8.277787e+001  2.291020e+001 -1.459530e+001 -5.793655e+000  3.961556e+001
5.4741875000e+009 -4.650271e+000  1.739585e+002 -3.233007e+001  7.999408e+001  2.287312e+001 -1.460599e+001 -5.760596e+000  3.928369e+001
5.4743125000e+009 -4.669751e+000  1.741039e+002 -3.202421e+001  8.370647e+001  2.281792e+001 -1.554725e+001 -5.872740e+000  3.933576e+001
5.4744375000e+009 -4.665131e+000  1.739283e+002 -3.307228e+001  8.149773e+001  2.275523e+001 -1.576646e+001 -6.051970e+000  3.741796e+001
5.4745625000e+009 -4.483197e+000  1.739362e+002 -3.318643e+001  8.126762e+001  2.266619e+001 -1.611953e+001 -6.126918e+000  3.685844e+001
5.4746875000e+009 -4.697690e+000  1.733051e+002 -3.239775e+001  7.674321e+001  2.265434e+001 -1.701076e+001 -5.970201e+000  3.634949e+001
5.4748125000e+009 -4.767832e+000  1.727956e+002 -3.274072e+001  7.980779e+001  2.256416e+001 -1.691404e+001 -6.169821e+000  3.545997e+001
5.4749375000e+009 -4.643107e+000  1.726604e+002 -3.307002e+001  7.686594e+001  2.251038e+001 -1.718458e+001 -6.296159e+000  3.415948e+001
5.4750625000e+009 -4.650183e+000  1.720286e+002 -3.262373e+001  8.326347e+001  2.245485e+001 -1.773448e+001 -6.414186e+000  3.486666e+001
5.4751875000e+009 -4.713136e+000  1.731581e+002 -3.288448e+001  7.955195e+001  2.246246e+001 -1.871572e+001 -6.517942e+000  3.430401e+001
5.4753125000e+009 -4.663124e+000  1.721055e+002 -3.306618e+001  7.908504e+001  2.230561e+001 -1.877779e+001 -6.479843e+000  3.229873e+001
5.4754375000e+009 -4.621284e+000  1.716326e+002 -3.337612e+001  7.253735e+001  2.236668e+001 -1.956347e+001 -6.713401e+000  3.217106e+001
5.4755625000e+009 -4.949623e+000  1.721575e+002 -3.267131e+001  7.419838e+001  2.222536e+001 -1.997762e+001 -6.556838e+000  3.082140e+001
5.4756875000e+009 -4.486331e+000  1.695662e+002 -3.337267e+001  7.910571e+001  2.209339e+001 -2.020337e+001 -6.993888e+000  3.028799e+001
5.4758125000e+009 -4.911865e+000  1.701909e+002 -3.295749e+001  7.386379e+001  2.212245e+001 -2.071726e+001 -6.968220e+000  2.941282e+001
5.4759375000e+009 -5.023048e+000  1.699369e+002 -3.301164e+001  7.162072e+001  2.211720e+001 -2.101534e+001 -7.042154e+000  2.836139e+001
5.4760625000e+009 -5.030085e+000  1.695783e+002 -3.367793e+001  7.077213e+001  2.199890e+001 -2.155311e+001 -7.218860e+000  2.759160e+001
5.4761875000e+009 -5.265537e+000  1.688474e+002 -3.341675e+001  7.607150e+001  2.197099e+001 -2.196466e+001 -7.493485e+000  2.771802e+001
5.4763125000e+009 -5.346525e+000  1.691099e+002 -3.373412e+001  6.585444e+001  2.187033e+001 -2.274330e+001 -7.542624e+000  2.523273e+001
5.4764375000e+009 -5.036704e+000  1.681164e+002 -3.389328e+001  7.192087e+001  2.167901e+001 -2.318868e+001 -7.506570e+000  2.465307e+001
5.4765625000e+009 -5.201455e+000  1.655945e+002 -3.353986e+001  7.153319e+001  2.172295e+001 -2.308549e+001 -7.996682e+000  2.466496e+001
5.4766875000e+009 -4.892100e+000  1.667467e+002 -3.428925e+001  6.170560e+001  2.152845e+001 -2.414595e+001 -8.098728e+000  2.096023e+001
5.4768125000e+009 -5.224222e+000  1.667607e+002 -3.442037e+001  7.100584e+001  2.144362e+001 -2.469686e+001 -7.933876e+000  2.083345e+001
5.4769375000e+009 -5.293372e+000  1.668828e+002 -3.447085e+001  6.545699e+001  2.145750e+001 -2.471579e+001 -8.622208e+000  2.028944e+001
5.4770625000e+009 -5.149476e+000  1.655503e+002 -3.377739e+001  6.608158e+001  2.125677e+001 -2.575975e+001 -8.448020e+000  1.857742e+001
5.4771875000e+009 -5.565543e+000  1.663526e+002 -3.418458e+001  6.548823e+001  2.126503e+001 -2.580484e+001 -8.652755e+000  1.901237e+001
5.4773125000e+009 -5.334740e+000  1.657939e+002 -3.469633e+001  6.462976e+001  2.110191e+001 -2.657048e+001 -8.949861e+000  1.664974e+001
5.4774375000e+009 -5.593108e+000  1.645850e+002 -3.460093e+001  5.966132e+001  2.105245e+001 -2.711536e+001 -9.024413e+000  1.430701e+001
5.4775625000e+009 -5.294145e+000  1.636298e+002 -3.440692e+001  5.947361e+001  2.090528e+001 -2.728267e+001 -9.048988e+000  1.368053e+001
5.4776875000e+009 -5.836416e+000  1.642110e+002 -3.434906e+001  6.209822e+001  2.086218e+001 -2.807981e+001 -9.639132e+000  1.345681e+001
5.4778125000e+009 -5.584476e+000  1.625924e+002 -3.486843e+001  5.784227e+001  2.072848e+001 -2.827806e+001 -9.542033e+000  1.110248e+001
5.4779375000e+009 -5.296429e+000  1.631226e+002 -3.630431e+001  5.475208e+001  2.058127e+001 -2.873015e+001 -1.003918e+001  7.755706e+000
5.4780625000e+009 -5.526953e+000  1.609772e+002 -3.590773e+001  5.763105e+001  2.047642e+001 -2.911381e+001 -1.026659e+001  7.536971e+000
5.4781875000e+009 -5.889179e+000  1.620124e+002 -3.537624e+001  5.695531e+001  2.038593e+001 -3.005181e+001 -1.071630e+001  6.489455e+000
5.4783125000e+009 -5.758015e+000  1.626044e+002 -3.600798e+001  5.746678e+001  2.027796e+001 -3.054256e+001 -1.064374e+001  4.936392e+000
5.4784375000e+009 -5.922160e+000  1.609258e+002 -3.580066e+001  5.917192e+001  2.014858e+001 -3.130266e+001 -1.120953e+001  2.541560e+000
5.4785625000e+009 -5.811926e+000  1.606962e+002 -3.597258e+001  5.237488e+001  1.998795e+001 -3.139883e+001 -1.146609e+001  5.940045e-001
5.4786875000e+009 -5.787024e+000  1.598465e+002 -3.657698e+001  4.759285e+001  1.988234e+001 -3.180626e+001 -1.137523e+001 -1.368794e+000
5.4788125000e+009 -6.037397e+000  1.580796e+002 -3.653007e+001  5.803031e+001  1.977562e+001 -3.207497e+001 -1.204930e+001 -2.135667e+000
5.4789375000e+009 -5.756947e+000  1.596893e+002 -3.650362e+001  5.866648e+001  1.958267e+001 -3.311533e+001 -1.218769e+001 -5.274264e+000
5.4790625000e+009 -5.962772e+000  1.602519e+002 -3.604077e+001  5.765713e+001  1.941259e+001 -3.355207e+001 -1.251058e+001 -5.401004e+000
5.4791875000e+009 -6.090464e+000  1.590620e+002 -3.725232e+001  4.459858e+001  1.926952e+001 -3.423376e+001 -1.309114e+001 -1.317990e+001
5.4793125000e+009 -6.430767e+000  1.561261e+002 -3.802625e+001  5.027842e+001  1.916688e+001 -3.454485e+001 -1.317184e+001 -1.262991e+001
5.4794375000e+009 -6.143252e+000  1.573835e+002 -3.745073e+001  5.202488e+001  1.889372e+001 -3.539759e+001 -1.370689e+001 -1.564200e+001
5.4795625000e+009 -6.066693e+000  1.569182e+002 -3.752341e+001  4.706663e+001  1.879691e+001 -3.557618e+001 -1.388110e+001 -2.032393e+001
5.4796875000e+009 -6.576510e+000  1.539358e+002 -3.802114e+001  4.582412e+001  1.858827e+001 -3.592520e+001 -1.493586e+001 -2.445778e+001
5.4798125000e+009 -5.905329e+000  1.572992e+002 -3.784010e+001  4.962132e+001  1.835518e+001 -3.628725e+001 -1.461940e+001 -2.275884e+001
5.4799375000e+009 -6.463881e+000  1.557745e+002 -3.809529e+001  4.094844e+001  1.815322e+001 -3.726899e+001 -1.527126e+001 -3.168182e+001
5.4800625000e+009 -6.828780e+000  1.543263e+002 -3.842392e+001  4.019513e+001  1.806427e+001 -3.755993e+001 -1.533739e+001 -3.373177e+001
5.4801875000e+009 -6.692341e+000  1.560355e+002 -3.900055e+001  4.393224e+001  1.773682e+001 -3.866026e+001 -1.589660e+001 -4.172344e+001
5.4803125000e+009 -6.633533e+000  1.544757e+002 -3.839816e+001  3.282908e+001  1.755783e+001 -3.879242e+001 -1.594257e+001 -4.486861e+001
5.4804375000e+009 -7.114128e+000  1.528657e+002 -3.961426e+001  4.330161e+001  1.740803e+001 -3.957246e+001 -1.621088e+001 -5.002087e+001
5.4805625000e+009 -6.999990e+000  1.537772e+002 -3.909477e+001  4.636166e+001  1.711131e+001 -3.959839e+001 -1.658318e+001 -5.209065e+001
5.4806875000e+009 -7.022014e+000  1.542761e+002 -3.941883e+001  4.436225e+001  1.678175e+001 -4.053996e+001 -1.697173e+001 -6.146136e+001
5.4808125000e+009 -7.169012e+000  1.501184e+002 -4.054979e+001  4.167955e+001  1.658668e+001 -4.039480e+001 -1.690715e+001 -6.651819e+001
5.4809375000e+009 -7.125889e+000  1.541479e+002 -3.972656e+001  4.793729e+001  1.625595e+001 -4.094240e+001 -1.723682e+001 -6.832983e+001
5.4810625000e+009 -7.297131e+000  1.534089e+002 -4.040541e+001  3.498999e+001  1.597678e+001 -4.147537e+001 -1.705690e+001 -7.918463e+001
5.4811875000e+009 -7.685911e+000  1.498408e+002 -4.260027e+001  2.768119e+001  1.568281e+001 -4.142992e+001 -1.703694e+001 -8.627423e+001
5.4813125000e+009 -7.571120e+000  1.497316e+002 -4.146316e+001  4.170559e+001  1.541756e+001 -4.139993e+001 -1.707907e+001 -8.722541e+001
5.4814375000e+009 -7.707149e+000  1.517889e+002 -4.205774e+001  4.594352e+001  1.501713e+001 -4.278553e+001 -1.653728e+001 -9.823428e+001
5.4815625000e+009 -7.917275e+000  1.503701e+002 -4.497706e+001  3.814580e+001  1.462724e+001 -4.263185e+001 -1.623965e+001 -1.029689e+002
5.4816875000e+009 -7.579629e+000  1.527668e+002 -4.437128e+001  4.908357e+001  1.419478e+001 -4.196905e+001 -1.686390e+001 -1.047746e+002
5.4818125000e+009 -7.956530e+000  1.472161e+002 -4.542039e+001  4.855702e+001  1.383337e+001 -4.295365e+001 -1.556509e+001 -1.132221e+002
5.4819375000e+009 -8.014535e+000  1.475712e+002 -4.288581e+001  3.054104e+001  1.334828e+001 -4.300861e+001 -1.510434e+001 -1.172058e+002
5.4820625000e+009 -7.788881e+000  1.496662e+002 -4.284820e+001  3.385596e+001  1.289645e+001 -4.292509e+001 -1.510676e+001 -1.202892e+002
5.4821875000e+009 -8.258010e+000  1.482386e+002 -4.462126e+001  4.173383e+001  1.248310e+001 -4.288380e+001 -1.454022e+001 -1.248200e+002
5.4823125000e+009 -8.202384e+000  1.487115e+002 -4.666425e+001  4.144600e+001  1.190531e+001 -4.246642e+001 -1.388622e+001 -1.293649e+002
5.4824375000e+009 -8.319399e+000  1.494989e+002 -4.541698e+001  3.658849e+001  1.145110e+001 -4.080302e+001 -1.402580e+001 -1.312131e+002
5.4825625000e+009 -8.331927e+000  1.485830e+002 -4.650436e+001  4.415042e+001  1.065987e+001 -4.071869e+001 -1.335777e+001 -1.359381e+002
5.4826875000e+009 -8.424792e+000  1.504683e+002 -4.795938e+001  2.068782e+001  9.891186e+000 -3.984334e+001 -1.269154e+001 -1.397713e+002
5.4828125000e+009 -8.561916e+000  1.499509e+002 -4.684509e+001  5.384491e+001  9.555478e+000 -3.895155e+001 -1.277647e+001 -1.410111e+002
5.4829375000e+009 -8.468478e+000  1.509189e+002 -4.900852e+001 -6.838539e+000  8.576912e+000 -3.681264e+001 -1.212941e+001 -1.445439e+002
5.4830625000e+009 -8.989693e+000  1.463743e+002 -5.094558e+001  4.597298e+001  7.900846e+000 -3.374700e+001 -1.177590e+001 -1.468142e+002
5.4831875000e+009 -9.153363e+000  1.454129e+002 -4.995935e+001  3.722691e+001  7.399671e+000 -3.050014e+001 -1.178925e+001 -1.482629e+002
5.4833125000e+009 -8.948666e+000  1.500007e+002 -4.935786e+001  6.978430e+001  6.220950e+000 -2.737541e+001 -1.116502e+001 -1.514395e+002
5.4834375000e+009 -9.200517e+000  1.464604e+002 -5.413168e+001  3.797604e+001  5.462384e+000 -2.209355e+001 -1.090084e+001 -1.535041e+002
5.4835625000e+009 -9.226745e+000  1.471778e+002 -5.479358e+001  4.775159e+001  4.698530e+000 -1.593792e+001 -1.057041e+001 -1.551188e+002
5.4836875000e+009 -9.407456e+000  1.491831e+002 -5.803391e+001  2.387127e+001  3.875380e+000 -8.273879e+000 -1.021008e+001 -1.578919e+002
5.4838125000e+009 -9.284661e+000  1.471199e+002 -5.456061e+001  8.274030e+001  3.433146e+000  2.938005e-001 -1.005736e+001 -1.591407e+002
5.4839375000e+009 -9.580928e+000  1.482436e+002 -6.907538e+001  2.283874e+001  3.213882e+000  1.077359e+001 -9.800445e+000 -1.602748e+002
5.4840625000e+009 -9.638299e+000  1.467760e+002 -5.610527e+001  9.875541e+001  3.341706e+000  2.125995e+001 -9.385203e+000 -1.627598e+002
5.4841875000e+009 -9.613512e+000  1.453080e+002 -5.258069e+001  1.174402e+002  3.663958e+000  3.062488e+001 -9.092424e+000 -1.651369e+002
5.4843125000e+009 -9.872312e+000  1.498821e+002 -6.112524e+001  1.690672e+002  4.180829e+000  3.787288e+001 -8.872228e+000 -1.658776e+002
5.4844375000e+009 -9.939999e+000  1.494749e+002 -5.935133e+001  1.504479e+002  4.984122e+000  4.510082e+001 -8.578236e+000 -1.675383e+002
5.4845625000e+009 -9.838408e+000  1.470853e+002 -5.260592e+001  1.622523e+002  5.905845e+000  5.095588e+001 -8.337988e+000 -1.689387e+002
5.4846875000e+009 -1.017190e+001  1.514746e+002 -5.701745e+001  1.314706e+002  6.540827e+000  5.436416e+001 -8.343058e+000 -1.698769e+002
5.4848125000e+009 -1.017743e+001  1.501283e+002 -5.183609e+001  1.497425e+002  7.497725e+000  5.849488e+001 -7.895947e+000 -1.715211e+002
5.4849375000e+009 -1.014052e+001  1.474982e+002 -5.241924e+001  1.408828e+002  8.302336e+000  6.162078e+001 -7.705901e+000 -1.733929e+002
5.4850625000e+009 -1.050560e+001  1.489632e+002 -5.066675e+001  1.593813e+002  8.810631e+000  6.313884e+001 -7.553182e+000 -1.741405e+002
5.4851875000e+009 -1.038148e+001  1.503019e+002 -4.607885e+001  1.602752e+002  9.699143e+000  6.479340e+001 -7.361626e+000 -1.756599e+002
5.4853125000e+009 -1.032378e+001  1.476260e+002 -4.809804e+001  1.469651e+002  1.035959e+001  6.650069e+001 -7.109915e+000 -1.775646e+002
5.4854375000e+009 -1.033136e+001  1.500809e+002 -5.449038e+001  1.327356e+002  1.083194e+001  6.705348e+001 -7.018494e+000 -1.784860e+002
5.4855625000e+009 -1.055697e+001  1.509322e+002 -4.879220e+001 -1.648647e+002  1.157841e+001  6.777789e+001 -6.880690e+000 -1.793480e+002
5.4856875000e+009 -1.053226e+001  1.491371e+002 -4.605433e+001  1.525424e+002  1.219118e+001  6.823669e+001 -6.576171e+000  1.770799e+002
5.4858125000e+009 -1.075589e+001  1.503956e+002 -4.355873e+001  1.454256e+002  1.259524e+001  6.807845e+001 -6.374548e+000  1.779525e+002
5.4859375000e+009 -1.092852e+001  1.526329e+002 -4.690838e+001  1.611209e+002  1.300228e+001  6.807549e+001 -6.348797e+000  1.765866e+002
5.4860625000e+009 -1.063908e+001  1.504937e+002 -4.378115e+001  1.771024e+002  1.362301e+001  6.842913e+001 -6.045589e+000  1.761183e+002
5.4861875000e+009 -1.079708e+001  1.546902e+002 -4.755391e+001  1.659308e+002  1.383590e+001  6.828525e+001 -6.131736e+000  1.743307e+002
5.4863125000e+009 -1.098792e+001  1.534665e+002 -4.691260e+001  1.632152e+002  1.426250e+001  6.791111e+001 -5.927803e+000  1.734584e+002
5.4864375000e+009 -1.050719e+001  1.496707e+002 -4.123876e+001  1.706641e+002  1.470723e+001  6.783409e+001 -5.543295e+000  1.712726e+002
5.4865625000e+009 -1.093223e+001  1.546303e+002 -4.574728e+001 -1.768599e+002  1.503353e+001  6.732586e+001 -5.742719e+000  1.714132e+002
5.4866875000e+009 -1.080782e+001  1.540219e+002 -4.272961e+001  1.690085e+002  1.536817e+001  6.705198e+001 -5.415179e+000  1.703934e+002
5.4868125000e+009 -1.059263e+001  1.499673e+002 -4.226564e+001  1.510829e+002  1.579181e+001  6.681416e+001 -5.131181e+000  1.685038e+002
5.4869375000e+009 -1.062367e+001  1.533379e+002 -4.292551e+001  1.628778e+002  1.587649e+001  6.626759e+001 -5.347046e+000  1.685635e+002
5.4870625000e+009 -1.084083e+001  1.526136e+002 -4.342122e+001  1.652518e+002  1.626774e+001  6.582456e+001 -5.097041e+000  1.672917e+002
5.4871875000e+009 -1.083950e+001  1.516526e+002 -4.203976e+001  1.476926e+002  1.654601e+001  6.504713e+001 -4.924430e+000  1.649671e+002
5.4873125000e+009 -1.103553e+001  1.537807e+002 -4.347607e+001  1.519012e+002  1.673721e+001  6.493291e+001 -5.136970e+000  1.654719e+002
5.4874375000e+009 -1.097619e+001  1.538469e+002 -4.039639e+001  1.661218e+002  1.705576e+001  6.392192e+001 -4.760967e+000  1.639925e+002
5.4875625000e+009 -1.093157e+001  1.529278e+002 -4.130716e+001  1.640713e+002  1.737120e+001  6.355894e+001 -4.637434e+000  1.623200e+002
5.4876875000e+009 -1.082665e+001  1.546945e+002 -4.153677e+001  1.587808e+002  1.748323e+001  6.330764e+001 -4.719749e+000  1.636625e+002
5.4878125000e+009 -1.115899e+001  1.542449e+002 -4.057206e+001  1.540373e+002  1.773234e+001  6.190045e+001 -4.406857e+000  1.607579e+002
5.4879375000e+009 -1.080590e+001  1.532199e+002 -4.053745e+001  1.565227e+002  1.795623e+001  6.190265e+001 -4.414354e+000  1.604114e+002
5.4880625000e+009 -1.089206e+001  1.535996e+002 -4.024031e+001  1.539020e+002  1.807572e+001  6.164174e+001 -4.521163e+000  1.603653e+002
5.4881875000e+009 -1.121509e+001  1.562153e+002 -4.089945e+001  1.573860e+002  1.830083e+001  6.071874e+001 -4.348272e+000  1.589451e+002
5.4883125000e+009 -1.086898e+001  1.544453e+002 -4.117636e+001  1.606058e+002  1.850526e+001  6.025018e+001 -4.316076e+000  1.581413e+002
5.4884375000e+009 -1.074378e+001  1.554275e+002 -3.896419e+001  1.498221e+002  1.857947e+001  5.979477e+001 -4.287013e+000  1.580322e+002
5.4885625000e+009 -1.106968e+001  1.557518e+002 -4.036018e+001  1.491854e+002  1.873249e+001  5.878057e+001 -4.189830e+000  1.559879e+002
5.4886875000e+009 -1.077805e+001  1.552195e+002 -3.941759e+001  1.505256e+002  1.897414e+001  5.810808e+001 -3.983987e+000  1.560813e+002
5.4888125000e+009 -1.079441e+001  1.557347e+002 -3.876177e+001  1.523215e+002  1.903753e+001  5.757563e+001 -4.054558e+000  1.550548e+002
5.4889375000e+009 -1.096221e+001  1.567517e+002 -3.903933e+001  1.410687e+002  1.915309e+001  5.690434e+001 -4.053944e+000  1.533839e+002
5.4890625000e+009 -1.047328e+001  1.531572e+002 -3.815211e+001  1.432841e+002  1.934646e+001  5.655824e+001 -3.775422e+000  1.537792e+002
5.4891875000e+009 -1.053825e+001  1.562422e+002 -3.884977e+001  1.484824e+002  1.940965e+001  5.630426e+001 -4.007761e+000  1.528913e+002
5.4893125000e+009 -1.077942e+001  1.551139e+002 -3.901495e+001  1.417768e+002  1.958257e+001  5.559874e+001 -3.931531e+000  1.519877e+002
5.4894375000e+009 -1.068019e+001  1.548795e+002 -3.927025e+001  1.429605e+002  1.967131e+001  5.473974e+001 -3.869606e+000  1.504506e+002
5.4895625000e+009 -1.059133e+001  1.545445e+002 -3.756760e+001  1.412752e+002  1.978444e+001  5.460540e+001 -3.869591e+000  1.508100e+002
5.4896875000e+009 -1.066288e+001  1.566024e+002 -3.703828e+001  1.487404e+002  1.983115e+001  5.411692e+001 -3.999099e+000  1.502767e+002
5.4898125000e+009 -1.066095e+001  1.572022e+002 -3.906227e+001  1.500784e+002  1.999364e+001  5.265847e+001 -3.729479e+000  1.485070e+002
5.4899375000e+009 -1.058420e+001  1.571466e+002 -3.748146e+001  1.482065e+002  2.004015e+001  5.275417e+001 -3.861445e+000  1.487304e+002
5.4900625000e+009 -1.054499e+001  1.573110e+002 -3.799628e+001  1.519101e+002  2.014262e+001  5.197425e+001 -3.826617e+000  1.479105e+002
5.4901875000e+009 -1.050305e+001  1.561593e+002 -3.730581e+001  1.394511e+002  2.028736e+001  5.170099e+001 -3.668933e+000  1.470893e+002
5.4903125000e+009 -1.027822e+001  1.553591e+002 -3.616301e+001  1.442498e+002  2.030601e+001  5.168016e+001 -3.783074e+000  1.470809e+002
5.4904375000e+009 -1.044922e+001  1.566017e+002 -3.595018e+001  1.467581e+002  2.036422e+001  5.078596e+001 -3.732562e+000  1.463501e+002
5.4905625000e+009 -1.045412e+001  1.560134e+002 -3.756765e+001  1.396446e+002  2.055762e+001  4.929987e+001 -3.502052e+000  1.447999e+002
5.4906875000e+009 -1.022080e+001  1.559267e+002 -3.699937e+001  1.427788e+002  2.056093e+001  4.893938e+001 -3.474871e+000  1.441289e+002
5.4908125000e+009 -1.043170e+001  1.560401e+002 -3.674827e+001  1.429525e+002  2.064153e+001  4.897918e+001 -3.647571e+000  1.439204e+002
5.4909375000e+009 -1.043902e+001  1.560464e+002 -3.692464e+001  1.402048e+002  2.077246e+001  4.826028e+001 -3.571885e+000  1.432727e+002
5.4910625000e+009 -1.022471e+001  1.554239e+002 -3.590787e+001  1.371268e+002  2.083954e+001  4.774521e+001 -3.440435e+000  1.428150e+002
5.4911875000e+009 -1.041758e+001  1.565641e+002 -3.678783e+001  1.339138e+002  2.080937e+001  4.753805e+001 -3.695452e+000  1.411130e+002
5.4913125000e+009 -1.021820e+001  1.558893e+002 -3.727084e+001  1.435955e+002  2.099180e+001  4.690069e+001 -3.590060e+000  1.418418e+002
5.4914375000e+009 -1.029536e+001  1.564753e+002 -3.645159e+001  1.370787e+002  2.099411e+001  4.606800e+001 -3.524308e+000  1.406014e+002
5.4915625000e+009 -1.031952e+001  1.561778e+002 -3.688410e+001  1.399670e+002  2.101938e+001  4.593417e+001 -3.719112e+000  1.400559e+002
5.4916875000e+009 -1.017863e+001  1.556311e+002 -3.549250e+001  1.370710e+002  2.110092e+001  4.484471e+001 -3.402570e+000  1.392563e+002
5.4918125000e+009 -1.024432e+001  1.556384e+002 -3.672025e+001  1.314247e+002  2.118345e+001  4.502039e+001 -3.607836e+000  1.384966e+002
5.4919375000e+009 -1.013491e+001  1.558901e+002 -3.619487e+001  1.441457e+002  2.110232e+001  4.455663e+001 -3.745400e+000  1.379904e+002
5.4920625000e+009 -1.017791e+001  1.558544e+002 -3.689135e+001  1.365162e+002  2.128412e+001  4.357458e+001 -3.561912e+000  1.369483e+002
5.4921875000e+009 -1.030698e+001  1.565395e+002 -3.703214e+001  1.280726e+002  2.123072e+001  4.319914e+001 -3.602795e+000  1.354570e+002
5.4923125000e+009 -1.025119e+001  1.557666e+002 -3.578556e+001  1.308248e+002  2.139693e+001  4.294791e+001 -3.537949e+000  1.364266e+002
5.4924375000e+009 -1.016281e+001  1.555615e+002 -3.640592e+001  1.339835e+002  2.145230e+001  4.185756e+001 -3.459621e+000  1.356901e+002
5.4925625000e+009 -1.011702e+001  1.548504e+002 -3.562263e+001  1.344407e+002  2.140180e+001  4.198046e+001 -3.565993e+000  1.350433e+002
5.4926875000e+009 -1.006954e+001  1.553799e+002 -3.547517e+001  1.316423e+002  2.137044e+001  4.160680e+001 -3.584567e+000  1.335987e+002
5.4928125000e+009 -1.003940e+001  1.555784e+002 -3.643050e+001  1.349169e+002  2.155539e+001  4.072914e+001 -3.566442e+000  1.339478e+002
5.4929375000e+009 -1.017804e+001  1.544485e+002 -3.569170e+001  1.282955e+002  2.156104e+001  4.033285e+001 -3.543071e+000  1.326842e+002
5.4930625000e+009 -1.003524e+001  1.545014e+002 -3.515676e+001  1.286641e+002  2.147417e+001  4.063066e+001 -3.689142e+000  1.316311e+002
5.4931875000e+009 -1.013603e+001  1.544507e+002 -3.591317e+001  1.278448e+002  2.160711e+001  3.961730e+001 -3.630803e+000  1.311027e+002
5.4933125000e+009 -1.004502e+001  1.541881e+002 -3.510720e+001  1.288063e+002  2.161325e+001  3.976766e+001 -3.692532e+000  1.314111e+002
5.4934375000e+009 -1.012582e+001  1.547527e+002 -3.499680e+001  1.225718e+002  2.161813e+001  3.888512e+001 -3.596607e+000  1.294641e+002
5.4935625000e+009 -1.002701e+001  1.543664e+002 -3.526004e+001  1.279140e+002  2.177048e+001  3.790004e+001 -3.490077e+000  1.301547e+002
5.4936875000e+009 -1.016063e+001  1.542410e+002 -3.536436e+001  1.187741e+002  2.176474e+001  3.767563e+001 -3.580124e+000  1.283125e+002
5.4938125000e+009 -9.993122e+000  1.543436e+002 -3.549735e+001  1.267750e+002  2.166983e+001  3.803376e+001 -3.847379e+000  1.280494e+002
5.4939375000e+009 -1.010156e+001  1.534540e+002 -3.587754e+001  1.235552e+002  2.183997e+001  3.655714e+001 -3.649570e+000  1.275006e+002
5.4940625000e+009 -1.023164e+001  1.530693e+002 -3.487920e+001  1.169794e+002  2.186425e+001  3.633456e+001 -3.551203e+000  1.263670e+002
5.4941875000e+009 -1.003553e+001  1.536421e+002 -3.550136e+001  1.264316e+002  2.188348e+001  3.586338e+001 -3.647705e+000  1.270675e+002
5.4943125000e+009 -1.004168e+001  1.532279e+002 -3.637557e+001  1.244347e+002  2.200741e+001  3.516165e+001 -3.678535e+000  1.267125e+002
5.4944375000e+009 -1.003707e+001  1.529939e+002 -3.563921e+001  1.218184e+002  2.186199e+001  3.568266e+001 -3.819402e+000  1.251611e+002
5.4945625000e+009 -9.900093e+000  1.530126e+002 -3.473066e+001  1.237317e+002  2.193510e+001  3.515868e+001 -3.719544e+000  1.252817e+002
5.4946875000e+009 -1.005093e+001  1.527986e+002 -3.577028e+001  1.187897e+002  2.211071e+001  3.395921e+001 -3.673646e+000  1.246882e+002
5.4948125000e+009 -1.000263e+001  1.523541e+002 -3.506665e+001  1.195025e+002  2.205440e+001  3.414572e+001 -3.745662e+000  1.238289e+002
5.4949375000e+009 -9.864501e+000  1.526450e+002 -3.504567e+001  1.255454e+002  2.199406e+001  3.382288e+001 -3.789036e+000  1.235016e+002
5.4950625000e+009 -1.000122e+001  1.516730e+002 -3.525474e+001  1.218699e+002  2.207916e+001  3.294917e+001 -3.731650e+000  1.229015e+002
5.4951875000e+009 -1.012517e+001  1.525983e+002 -3.558623e+001  1.163931e+002  2.194552e+001  3.280586e+001 -3.901461e+000  1.205512e+002
5.4953125000e+009 -1.002352e+001  1.520472e+002 -3.473297e+001  1.168243e+002  2.184968e+001  3.279706e+001 -3.923395e+000  1.195971e+002
5.4954375000e+009 -1.013246e+001  1.519383e+002 -3.570325e+001  1.140010e+002  2.216443e+001  3.180492e+001 -3.862215e+000  1.205544e+002
5.4955625000e+009 -1.007019e+001  1.521683e+002 -3.548589e+001  1.159425e+002  2.211716e+001  3.175564e+001 -3.968225e+000  1.198188e+002
5.4956875000e+009 -9.925675e+000  1.533503e+002 -3.541638e+001  1.131756e+002  2.200635e+001  3.133384e+001 -3.992808e+000  1.183355e+002
5.4958125000e+009 -1.001392e+001  1.503575e+002 -3.486314e+001  1.156744e+002  2.223848e+001  3.080662e+001 -3.839479e+000  1.192526e+002
5.4959375000e+009 -1.019416e+001  1.498043e+002 -3.467440e+001  1.113372e+002  2.216754e+001  3.096508e+001 -3.946841e+000  1.179244e+002
5.4960625000e+009 -9.920457e+000  1.509595e+002 -3.466125e+001  1.214852e+002  2.222949e+001  3.019378e+001 -3.903077e+000  1.189914e+002
5.4961875000e+009 -1.004895e+001  1.491810e+002 -3.434870e+001  1.169887e+002  2.230723e+001  3.018404e+001 -3.932680e+000  1.183232e+002
5.4963125000e+009 -9.935363e+000  1.501985e+002 -3.549210e+001  1.117951e+002  2.220915e+001  2.926384e+001 -4.031829e+000  1.158800e+002
5.4964375000e+009 -1.013572e+001  1.497392e+002 -3.497140e+001  1.111152e+002  2.233429e+001  2.891231e+001 -3.958795e+000  1.160164e+002
5.4965625000e+009 -9.999937e+000  1.505784e+002 -3.498195e+001  1.118897e+002  2.237111e+001  2.868886e+001 -4.031723e+000  1.159519e+002
5.4966875000e+009 -1.011528e+001  1.498614e+002 -3.467737e+001  1.115898e+002  2.216411e+001  2.822629e+001 -4.049503e+000  1.137337e+002
5.4968125000e+009 -9.868052e+000  1.505646e+002 -3.535243e+001  1.124948e+002  2.221505e+001  2.805313e+001 -4.188853e+000  1.138237e+002
5.4969375000e+009 -1.002604e+001  1.502808e+002 -3.510014e+001  1.056168e+002  2.230359e+001  2.750146e+001 -4.146078e+000  1.129270e+002
5.4970625000e+009 -1.006420e+001  1.495624e+002 -3.514124e+001  1.126673e+002  2.222935e+001  2.729534e+001 -4.264407e+000  1.124593e+002
5.4971875000e+009 -1.005396e+001  1.477634e+002 -3.445704e+001  1.087840e+002  2.225571e+001  2.691124e+001 -4.138278e+000  1.114435e+002
5.4973125000e+009 -1.011081e+001  1.481180e+002 -3.522975e+001  1.073112e+002  2.237242e+001  2.664315e+001 -4.264378e+000  1.117233e+002
5.4974375000e+009 -1.024934e+001  1.469199e+002 -3.438152e+001  1.153464e+002  2.240255e+001  2.635350e+001 -4.177763e+000  1.125098e+002
5.4975625000e+009 -1.006065e+001  1.494487e+002 -3.489718e+001  1.086940e+002  2.234930e+001  2.594138e+001 -4.278494e+000  1.107672e+002
5.4976875000e+009 -1.009462e+001  1.469178e+002 -3.455715e+001  1.110692e+002  2.253091e+001  2.528939e+001 -4.134213e+000  1.112808e+002
5.4978125000e+009 -1.027015e+001  1.474169e+002 -3.545539e+001  1.090984e+002  2.238806e+001  2.503850e+001 -4.407629e+000  1.092766e+002
5.4979375000e+009 -1.013630e+001  1.481603e+002 -3.484198e+001  1.056668e+002  2.229708e+001  2.438152e+001 -4.306643e+000  1.077051e+002
5.4980625000e+009 -9.898114e+000  1.468482e+002 -3.500607e+001  1.087091e+002  2.241880e+001  2.466897e+001 -4.360887e+000  1.087625e+002
5.4981875000e+009 -1.009744e+001  1.455923e+002 -3.428804e+001  1.119362e+002  2.244712e+001  2.433866e+001 -4.338193e+000  1.087056e+002
5.4983125000e+009 -1.018611e+001  1.476384e+002 -3.514608e+001  1.027951e+002  2.236119e+001  2.371538e+001 -4.511451e+000  1.060714e+002
5.4984375000e+009 -1.015687e+001  1.473172e+002 -3.489012e+001  1.065371e+002  2.249214e+001  2.356434e+001 -4.477390e+000  1.074271e+002
5.4985625000e+009 -1.029663e+001  1.471756e+002 -3.420483e+001  1.049051e+002  2.244496e+001  2.299323e+001 -4.397787e+000  1.058012e+002
5.4986875000e+009 -1.013817e+001  1.450950e+002 -3.450950e+001  1.047497e+002  2.246250e+001  2.290334e+001 -4.401398e+000  1.055255e+002
5.4988125000e+009 -9.952833e+000  1.462046e+002 -3.496861e+001  1.043417e+002  2.249823e+001  2.274539e+001 -4.570460e+000  1.055935e+002
5.4989375000e+009 -1.024415e+001  1.423364e+002 -3.438008e+001  1.073482e+002  2.252761e+001  2.238979e+001 -4.483167e+000  1.047039e+002
5.4990625000e+009 -1.025926e+001  1.473480e+002 -3.498048e+001  1.014961e+002  2.243237e+001  2.162566e+001 -4.643904e+000  1.035579e+002
5.4991875000e+009 -1.039838e+001  1.443975e+002 -3.395564e+001  1.018274e+002  2.255950e+001  2.156006e+001 -4.458072e+000  1.031331e+002
5.4993125000e+009 -1.020777e+001  1.425238e+002 -3.474261e+001  1.037107e+002  2.256989e+001  2.139833e+001 -4.585319e+000  1.028096e+002
5.4994375000e+009 -1.048926e+001  1.433512e+002 -3.475524e+001  1.032751e+002  2.254154e+001  2.063148e+001 -4.648612e+000  1.020905e+002
5.4995625000e+009 -1.020470e+001  1.440072e+002 -3.438135e+001  1.023857e+002  2.253752e+001  2.063573e+001 -4.608052e+000  1.021145e+002
5.4996875000e+009 -1.012844e+001  1.434794e+002 -3.516541e+001  1.008571e+002  2.259891e+001  2.079149e+001 -4.800930e+000  1.020457e+002
5.4998125000e+009 -1.012995e+001  1.454500e+002 -3.490665e+001  1.036790e+002  2.251909e+001  1.994555e+001 -4.763701e+000  1.006672e+002
5.4999375000e+009 -1.000735e+001  1.434974e+002 -3.518804e+001  1.036523e+002  2.258088e+001  1.996840e+001 -4.880147e+000  1.011282e+002
5.5000625000e+009 -1.017219e+001  1.424068e+002 -3.413919e+001  1.044292e+002  2.259937e+001  1.974111e+001 -4.683047e+000  1.004937e+002
5.5001875000e+009 -1.028129e+001  1.430592e+002 -3.580374e+001  1.026941e+002  2.255405e+001  1.909829e+001 -4.893291e+000  9.961883e+001
5.5003125000e+009 -1.041192e+001  1.422484e+002 -3.474052e+001  9.510912e+001  2.265094e+001  1.874184e+001 -4.938695e+000  9.789876e+001
5.5004375000e+009 -1.037293e+001  1.421994e+002 -3.536576e+001  9.842007e+001  2.261191e+001  1.868368e+001 -5.051313e+000  9.889333e+001
5.5005625000e+009 -1.039961e+001  1.435388e+002 -3.526445e+001  9.536194e+001  2.255927e+001  1.800529e+001 -4.980524e+000  9.666505e+001
5.5006875000e+009 -1.044389e+001  1.414325e+002 -3.436339e+001  9.171841e+001  2.264190e+001  1.781200e+001 -4.910343e+000  9.567724e+001
5.5008125000e+009 -1.024438e+001  1.395910e+002 -3.524489e+001  9.594895e+001  2.266934e+001  1.795885e+001 -5.017387e+000  9.631594e+001
5.5009375000e+009 -1.042760e+001  1.395135e+002 -3.368652e+001  9.920335e+001  2.266461e+001  1.742207e+001 -4.764969e+000  9.537815e+001
5.5010625000e+009 -1.046332e+001  1.422058e+002 -3.449458e+001  9.671458e+001  2.264796e+001  1.738034e+001 -4.972947e+000  9.524350e+001
5.5011875000e+009 -1.028234e+001  1.389258e+002 -3.484137e+001  9.953529e+001  2.269430e+001  1.659976e+001 -5.081511e+000  9.491596e+001
5.5013125000e+009 -1.035074e+001  1.431711e+002 -3.532088e+001  9.371618e+001  2.263929e+001  1.641260e+001 -5.099771e+000  9.328371e+001
5.5014375000e+009 -1.053527e+001  1.408763e+002 -3.522514e+001  9.493561e+001  2.264088e+001  1.606310e+001 -5.180198e+000  9.340833e+001
5.5015625000e+009 -1.035495e+001  1.402156e+002 -3.444119e+001  9.845748e+001  2.266076e+001  1.600362e+001 -5.063804e+000  9.345351e+001
5.5016875000e+009 -1.043693e+001  1.432427e+002 -3.466092e+001  9.365495e+001  2.264473e+001  1.546922e+001 -5.103062e+000  9.181332e+001
5.5018125000e+009 -1.034099e+001  1.408004e+002 -3.523849e+001  9.550216e+001  2.266111e+001  1.548723e+001 -5.234626e+000  9.194568e+001
5.5019375000e+009 -1.040539e+001  1.376152e+002 -3.522847e+001  9.648646e+001  2.271392e+001  1.539897e+001 -5.221593e+000  9.194335e+001
5.5020625000e+009 -1.062369e+001  1.396510e+002 -3.462267e+001  9.020627e+001  2.271807e+001  1.477805e+001 -5.230223e+000  8.980237e+001
5.5021875000e+009 -1.051622e+001  1.376390e+002 -3.509541e+001  9.307693e+001  2.269056e+001  1.456562e+001 -5.380757e+000  9.067033e+001
5.5023125000e+009 -1.049057e+001  1.392670e+002 -3.513880e+001  9.265726e+001  2.271259e+001  1.447564e+001 -5.372952e+000  8.964563e+001
5.5024375000e+009 -1.068712e+001  1.375066e+002 -3.417207e+001  9.147381e+001  2.278556e+001  1.398846e+001 -5.138673e+000  8.805069e+001
5.5025625000e+009 -1.053887e+001  1.375142e+002 -3.506996e+001  9.732575e+001  2.275618e+001  1.355568e+001 -5.379798e+000  8.917664e+001
5.5026875000e+009 -1.041875e+001  1.363102e+002 -3.427210e+001  9.153081e+001  2.275886e+001  1.349375e+001 -5.276886e+000  8.779201e+001
5.5028125000e+009 -1.066869e+001  1.382786e+002 -3.462932e+001  9.173357e+001  2.280301e+001  1.325937e+001 -5.274570e+000  8.677370e+001
5.5029375000e+009 -1.043456e+001  1.390532e+002 -3.481742e+001  8.682349e+001  2.273358e+001  1.280116e+001 -5.488197e+000  8.580052e+001
5.5030625000e+009 -1.076597e+001  1.372641e+002 -3.470334e+001  9.168832e+001  2.273448e+001  1.238710e+001 -5.358136e+000  8.645650e+001
5.5031875000e+009 -1.058607e+001  1.368246e+002 -3.480900e+001  9.105573e+001  2.282352e+001  1.271615e+001 -5.349894e+000  8.526785e+001
5.5033125000e+009 -1.048425e+001  1.359020e+002 -3.553543e+001  9.503316e+001  2.276184e+001  1.224035e+001 -5.606228e+000  8.634949e+001
5.5034375000e+009 -1.074881e+001  1.376605e+002 -3.488725e+001  9.221108e+001  2.274299e+001  1.173905e+001 -5.512813e+000  8.495298e+001
5.5035625000e+009 -1.090980e+001  1.390218e+002 -3.546899e+001  8.870959e+001  2.278680e+001  1.188562e+001 -5.460127e+000  8.373285e+001
5.5036875000e+009 -1.067100e+001  1.363462e+002 -3.522513e+001  9.004536e+001  2.285576e+001  1.132818e+001 -5.592939e+000  8.316219e+001
5.5038125000e+009 -1.052581e+001  1.338791e+002 -3.506214e+001  8.898299e+001  2.287913e+001  1.099176e+001 -5.572248e+000  8.237416e+001
5.5039375000e+009 -1.104480e+001  1.388414e+002 -3.455663e+001  8.751650e+001  2.275098e+001  1.042108e+001 -5.544980e+000  8.177402e+001
5.5040625000e+009 -1.061464e+001  1.379680e+002 -3.569077e+001  8.720791e+001  2.276861e+001  1.037567e+001 -5.780449e+000  8.185592e+001
5.5041875000e+009 -1.097287e+001  1.372676e+002 -3.453889e+001  8.894891e+001  2.275976e+001  9.768581e+000 -5.583466e+000  8.136604e+001
5.5043125000e+009 -1.060640e+001  1.349369e+002 -3.527508e+001  8.555789e+001  2.287554e+001  9.723802e+000 -5.772918e+000  8.000043e+001
5.5044375000e+009 -1.069037e+001  1.345641e+002 -3.550827e+001  8.477254e+001  2.283776e+001  1.013796e+001 -5.691568e+000  7.989452e+001
5.5045625000e+009 -1.070739e+001  1.351749e+002 -3.508325e+001  8.566207e+001  2.279183e+001  9.323042e+000 -5.720092e+000  7.956296e+001
5.5046875000e+009 -1.084912e+001  1.357494e+002 -3.545454e+001  8.831789e+001  2.278141e+001  9.721763e+000 -5.742846e+000  8.002113e+001
5.5048125000e+009 -1.115737e+001  1.368779e+002 -3.525451e+001  9.385745e+001  2.280796e+001  8.533811e+000 -5.725388e+000  7.948373e+001
5.5049375000e+009 -1.061228e+001  1.331746e+002 -3.588483e+001  8.387126e+001  2.281498e+001  8.680769e+000 -5.923536e+000  7.789613e+001
5.5050625000e+009 -1.091047e+001  1.343279e+002 -3.545464e+001  8.744892e+001  2.278801e+001  8.904447e+000 -5.732088e+000  7.840196e+001
5.5051875000e+009 -1.066378e+001  1.342727e+002 -3.578861e+001  8.503101e+001  2.282536e+001  7.694038e+000 -5.920204e+000  7.681385e+001
5.5053125000e+009 -1.081671e+001  1.333748e+002 -3.497814e+001  8.746927e+001  2.285716e+001  8.579624e+000 -5.679526e+000  7.685580e+001
5.5054375000e+009 -1.096732e+001  1.337639e+002 -3.477471e+001  8.619814e+001  2.291899e+001  8.236583e+000 -5.582686e+000  7.599200e+001
5.5055625000e+009 -1.110744e+001  1.342873e+002 -3.514063e+001  8.335434e+001  2.286781e+001  7.735600e+000 -5.749056e+000  7.518963e+001
5.5056875000e+009 -1.061008e+001  1.323297e+002 -3.535343e+001  8.522548e+001  2.287382e+001  7.336746e+000 -5.884566e+000  7.509882e+001
5.5058125000e+009 -1.071299e+001  1.320086e+002 -3.502722e+001  8.463418e+001  2.284086e+001  8.638827e+000 -5.595490e+000  7.506078e+001
5.5059375000e+009 -1.075248e+001  1.331937e+002 -3.544964e+001  8.289405e+001  2.286601e+001  7.124015e+000 -5.899647e+000  7.385543e+001
5.5060625000e+009 -1.063021e+001  1.303930e+002 -3.547566e+001  8.402927e+001  2.291370e+001  6.615361e+000 -5.899014e+000  7.319208e+001
5.5061875000e+009 -1.083185e+001  1.319454e+002 -3.598971e+001  8.699480e+001  2.291399e+001  6.161631e+000 -5.959367e+000  7.341543e+001
5.5063125000e+009 -1.106642e+001  1.342194e+002 -3.537339e+001  8.397688e+001  2.291957e+001  5.048560e+000 -5.939649e+000  7.188254e+001
5.5064375000e+009 -1.068697e+001  1.313022e+002 -3.561538e+001  8.249321e+001  2.297761e+001  5.421548e+000 -5.961763e+000  7.106498e+001
5.5065625000e+009 -1.086613e+001  1.318047e+002 -3.561172e+001  8.266540e+001  2.289459e+001  5.848892e+000 -5.907231e+000  7.149826e+001
5.5066875000e+009 -1.090496e+001  1.318918e+002 -3.546716e+001  8.312630e+001  2.285187e+001  5.074272e+000 -5.946466e+000  7.108745e+001
5.5068125000e+009 -1.071060e+001  1.308283e+002 -3.641069e+001  8.328436e+001  2.300017e+001  5.195417e+000 -6.081928e+000  7.055551e+001
5.5069375000e+009 -1.115579e+001  1.313645e+002 -3.596766e+001  8.284653e+001  2.290166e+001  4.863795e+000 -5.975533e+000  7.011929e+001
5.5070625000e+009 -1.106614e+001  1.306415e+002 -3.586715e+001  8.308272e+001  2.292754e+001  4.559638e+000 -5.968636e+000  6.987943e+001
5.5071875000e+009 -1.077689e+001  1.310318e+002 -3.541298e+001  8.038528e+001  2.295390e+001  3.921557e+000 -5.989446e+000  6.833457e+001
5.5073125000e+009 -1.101406e+001  1.297827e+002 -3.549777e+001  7.936748e+001  2.299742e+001  3.977733e+000 -5.916875e+000  6.752220e+001
5.5074375000e+009 -1.107484e+001  1.294815e+002 -3.516285e+001  8.222225e+001  2.295088e+001  3.584176e+000 -5.955701e+000  6.778389e+001
5.5075625000e+009 -1.104488e+001  1.300670e+002 -3.535347e+001  7.453594e+001  2.296810e+001  3.008603e+000 -6.010713e+000  6.564207e+001
5.5076875000e+009 -1.104588e+001  1.307838e+002 -3.530405e+001  8.085923e+001  2.283398e+001  4.259147e+000 -5.868186e+000  6.754662e+001
5.5078125000e+009 -1.095187e+001  1.289009e+002 -3.618312e+001  8.653666e+001  2.302489e+001  2.970366e+000 -5.999128e+000  6.741453e+001
5.5079375000e+009 -1.091968e+001  1.292166e+002 -3.539261e+001  7.685908e+001  2.304899e+001  2.554315e+000 -5.992012e+000  6.457417e+001
5.5080625000e+009 -1.091033e+001  1.286903e+002 -3.553502e+001  7.971702e+001  2.294484e+001  3.060825e+000 -5.906201e+000  6.564980e+001
5.5081875000e+009 -1.120629e+001  1.281167e+002 -3.554573e+001  8.173484e+001  2.298949e+001  2.633885e+000 -5.891860e+000  6.530522e+001
5.5083125000e+009 -1.077354e+001  1.290287e+002 -3.593548e+001  7.623781e+001  2.299641e+001  1.974793e+000 -6.041844e+000  6.390257e+001
5.5084375000e+009 -1.112280e+001  1.279195e+002 -3.564916e+001  8.031534e+001  2.296782e+001  2.599478e+000 -5.940798e+000  6.480434e+001
5.5085625000e+009 -1.095614e+001  1.281475e+002 -3.668350e+001  8.125469e+001  2.290529e+001  1.713674e+000 -6.147403e+000  6.460672e+001
5.5086875000e+009 -1.096865e+001  1.281667e+002 -3.584363e+001  7.511937e+001  2.295140e+001  9.849560e-001 -6.122006e+000  6.250914e+001
5.5088125000e+009 -1.110075e+001  1.271640e+002 -3.587810e+001  7.593221e+001  2.294661e+001  1.888660e+000 -5.948812e+000  6.297343e+001
5.5089375000e+009 -1.125643e+001  1.286053e+002 -3.521616e+001  7.646068e+001  2.303257e+001  4.945928e-003 -5.960761e+000  6.106919e+001
5.5090625000e+009 -1.111148e+001  1.267531e+002 -3.572199e+001  8.026732e+001  2.298774e+001  7.257645e-001 -5.945586e+000  6.266052e+001
5.5091875000e+009 -1.116240e+001  1.258616e+002 -3.547599e+001  7.913972e+001  2.293996e+001  1.409458e+000 -5.850329e+000  6.201372e+001
5.5093125000e+009 -1.122614e+001  1.255175e+002 -3.576655e+001  8.010576e+001  2.306145e+001 -2.719801e-001 -5.998092e+000  6.109793e+001
5.5094375000e+009 -1.066014e+001  1.273796e+002 -3.665384e+001  7.582116e+001  2.316242e+001 -1.379119e-001 -6.118938e+000  5.988242e+001
5.5095625000e+009 -1.126778e+001  1.260773e+002 -3.588279e+001  7.526408e+001  2.295328e+001 -1.917952e-001 -6.024860e+000  5.972742e+001
5.5096875000e+009 -1.120220e+001  1.255372e+002 -3.571449e+001  7.789803e+001  2.301488e+001 -1.064676e+000 -6.019345e+000  5.953318e+001
5.5098125000e+009 -1.110161e+001  1.250954e+002 -3.608549e+001  7.980641e+001  2.315161e+001 -8.315701e-001 -5.948254e+000  5.952341e+001
5.5099375000e+009 -1.137346e+001  1.249863e+002 -3.531889e+001  7.698627e+001  2.300340e+001 -8.044437e-001 -5.873950e+000  5.901684e+001
5.5100625000e+009 -1.141018e+001  1.241573e+002 -3.584594e+001  7.568832e+001  2.310287e+001 -1.194227e+000 -5.985997e+000  5.832687e+001
5.5101875000e+009 -1.110939e+001  1.245240e+002 -3.602085e+001  7.224782e+001  2.302560e+001 -1.540960e+000 -6.041969e+000  5.746132e+001
5.5103125000e+009 -1.143162e+001  1.238620e+002 -3.534092e+001  7.820627e+001  2.312534e+001 -2.097526e+000 -5.816848e+000  5.751620e+001
5.5104375000e+009 -1.127077e+001  1.240908e+002 -3.559553e+001  7.238800e+001  2.304563e+001 -2.238662e+000 -5.992031e+000  5.655474e+001
5.5105625000e+009 -1.110600e+001  1.245188e+002 -3.597400e+001  7.278589e+001  2.318088e+001 -2.254252e+000 -5.956374e+000  5.598817e+001
5.5106875000e+009 -1.106702e+001  1.245683e+002 -3.616499e+001  7.646624e+001  2.302671e+001 -2.435746e+000 -6.026362e+000  5.688638e+001
5.5108125000e+009 -1.126478e+001  1.224035e+002 -3.638665e+001  7.653399e+001  2.317743e+001 -2.464267e+000 -6.004712e+000  5.645606e+001
5.5109375000e+009 -1.118092e+001  1.238578e+002 -3.582154e+001  7.357765e+001  2.324014e+001 -3.252273e+000 -5.889203e+000  5.460849e+001
5.5110625000e+009 -1.121469e+001  1.229666e+002 -3.651756e+001  7.563826e+001  2.304624e+001 -3.175727e+000 -6.049228e+000  5.586393e+001
5.5111875000e+009 -1.125708e+001  1.220220e+002 -3.611716e+001  7.588273e+001  2.303733e+001 -2.986986e+000 -5.945070e+000  5.543684e+001
5.5113125000e+009 -1.104145e+001  1.229364e+002 -3.660056e+001  7.036926e+001  2.320813e+001 -3.586353e+000 -6.038611e+000  5.391915e+001
5.5114375000e+009 -1.122621e+001  1.228453e+002 -3.650615e+001  7.209731e+001  2.306250e+001 -3.694906e+000 -6.005068e+000  5.407787e+001
5.5115625000e+009 -1.130727e+001  1.223465e+002 -3.608766e+001  7.586166e+001  2.315775e+001 -4.059152e+000 -5.893921e+000  5.407567e+001
5.5116875000e+009 -1.134744e+001  1.214796e+002 -3.579792e+001  7.395197e+001  2.325229e+001 -4.561687e+000 -5.859728e+000  5.307087e+001
5.5118125000e+009 -1.116413e+001  1.217497e+002 -3.618585e+001  7.412607e+001  2.318134e+001 -4.508043e+000 -5.867640e+000  5.294192e+001
5.5119375000e+009 -1.128281e+001  1.211670e+002 -3.602094e+001  6.960596e+001  2.302931e+001 -4.674701e+000 -5.955909e+000  5.245067e+001
5.5120625000e+009 -1.127828e+001  1.208426e+002 -3.621086e+001  7.476180e+001  2.328805e+001 -4.941994e+000 -5.856987e+000  5.213141e+001
5.5121875000e+009 -1.121933e+001  1.213433e+002 -3.701687e+001  6.725755e+001  2.298966e+001 -5.449051e+000 -6.107048e+000  5.192425e+001
5.5123125000e+009 -1.120132e+001  1.202594e+002 -3.720210e+001  7.265976e+001  2.333217e+001 -5.115535e+000 -5.935200e+000  5.183418e+001
5.5124375000e+009 -1.121237e+001  1.207119e+002 -3.670687e+001  7.226698e+001  2.327755e+001 -5.720159e+000 -5.909079e+000  5.129298e+001
5.5125625000e+009 -1.121904e+001  1.203587e+002 -3.686077e+001  7.041265e+001  2.301893e+001 -6.117233e+000 -6.014520e+000  5.137125e+001
5.5126875000e+009 -1.133785e+001  1.196188e+002 -3.612900e+001  6.760454e+001  2.319636e+001 -6.073548e+000 -5.860128e+000  4.982447e+001
5.5128125000e+009 -1.133219e+001  1.203231e+002 -3.597599e+001  6.981540e+001  2.325928e+001 -6.080082e+000 -5.798450e+000  4.978756e+001
5.5129375000e+009 -1.115432e+001  1.198302e+002 -3.702706e+001  6.906747e+001  2.316149e+001 -6.584586e+000 -6.007316e+000  5.001914e+001
5.5130625000e+009 -1.137081e+001  1.193165e+002 -3.601595e+001  6.943829e+001  2.314428e+001 -7.010982e+000 -5.833646e+000  4.908273e+001
5.5131875000e+009 -1.134724e+001  1.191459e+002 -3.606053e+001  6.566900e+001  2.328090e+001 -6.826935e+000 -5.867284e+000  4.825301e+001
5.5133125000e+009 -1.130932e+001  1.186472e+002 -3.634369e+001  6.820918e+001  2.308469e+001 -7.460323e+000 -5.894789e+000  4.861609e+001
5.5134375000e+009 -1.127949e+001  1.181975e+002 -3.678198e+001  6.832336e+001  2.327500e+001 -7.088167e+000 -5.901489e+000  4.872683e+001
5.5135625000e+009 -1.135285e+001  1.176067e+002 -3.645061e+001  6.764732e+001  2.342776e+001 -7.419594e+000 -5.840442e+000  4.747108e+001
5.5136875000e+009 -1.137475e+001  1.175258e+002 -3.652864e+001  6.834055e+001  2.322970e+001 -7.977044e+000 -5.857358e+000  4.793026e+001
5.5138125000e+009 -1.127018e+001  1.170078e+002 -3.713345e+001  7.219434e+001  2.322874e+001 -8.093580e+000 -5.923945e+000  4.848013e+001
5.5139375000e+009 -1.137391e+001  1.166333e+002 -3.666418e+001  7.039704e+001  2.330305e+001 -8.421358e+000 -5.874558e+000  4.737707e+001
5.5140625000e+009 -1.125679e+001  1.162861e+002 -3.743232e+001  6.994706e+001  2.327072e+001 -8.395233e+000 -5.953596e+000  4.751931e+001
5.5141875000e+009 -1.143456e+001  1.167517e+002 -3.586081e+001  6.561416e+001  2.329661e+001 -8.822537e+000 -5.765767e+000  4.590016e+001
5.5143125000e+009 -1.137569e+001  1.150863e+002 -3.640411e+001  7.257678e+001  2.338931e+001 -9.060265e+000 -5.761404e+000  4.675065e+001
5.5144375000e+009 -1.136985e+001  1.153412e+002 -3.676949e+001  6.987387e+001  2.329795e+001 -9.212702e+000 -5.862211e+000  4.661188e+001
5.5145625000e+009 -1.134185e+001  1.151759e+002 -3.674994e+001  7.094327e+001  2.329480e+001 -9.582223e+000 -5.808990e+000  4.638485e+001
5.5146875000e+009 -1.141643e+001  1.148573e+002 -3.679656e+001  6.643878e+001  2.337280e+001 -9.909236e+000 -5.875774e+000  4.544415e+001
5.5148125000e+009 -1.141636e+001  1.141892e+002 -3.678572e+001  6.736716e+001  2.333128e+001 -1.002969e+001 -5.862223e+000  4.522796e+001
5.5149375000e+009 -1.134406e+001  1.142092e+002 -3.742701e+001  7.152870e+001  2.331483e+001 -1.023012e+001 -5.875497e+000  4.587835e+001
5.5150625000e+009 -1.147388e+001  1.137263e+002 -3.645526e+001  6.783233e+001  2.325892e+001 -1.078465e+001 -5.835558e+000  4.451476e+001
5.5151875000e+009 -1.136868e+001  1.134671e+002 -3.701896e+001  6.757939e+001  2.338541e+001 -1.056527e+001 -5.880418e+000  4.465265e+001
5.5153125000e+009 -1.146054e+001  1.128407e+002 -3.684847e+001  6.864637e+001  2.339658e+001 -1.061577e+001 -5.824737e+000  4.437280e+001
5.5154375000e+009 -1.146833e+001  1.123335e+002 -3.689717e+001  6.957736e+001  2.335117e+001 -1.150764e+001 -5.871607e+000  4.429705e+001
5.5155625000e+009 -1.135830e+001  1.128071e+002 -3.736628e+001  6.614616e+001  2.336901e+001 -1.137752e+001 -5.915389e+000  4.394085e+001
5.5156875000e+009 -1.137970e+001  1.131000e+002 -3.714540e+001  6.725139e+001  2.337349e+001 -1.166075e+001 -5.874714e+000  4.333638e+001
5.5158125000e+009 -1.137271e+001  1.116768e+002 -3.730420e+001  6.754662e+001  2.341589e+001 -1.176105e+001 -5.888207e+000  4.352514e+001
5.5159375000e+009 -1.135300e+001  1.113327e+002 -3.745716e+001  6.736025e+001  2.337517e+001 -1.207699e+001 -5.910910e+000  4.329945e+001
5.5160625000e+009 -1.136192e+001  1.118738e+002 -3.707279e+001  6.692776e+001  2.341857e+001 -1.205786e+001 -5.833554e+000  4.260463e+001
5.5161875000e+009 -1.128150e+001  1.102863e+002 -3.776954e+001  6.869769e+001  2.340330e+001 -1.281374e+001 -5.898074e+000  4.316556e+001
5.5163125000e+009 -1.139770e+001  1.100348e+002 -3.710632e+001  6.844076e+001  2.346717e+001 -1.263435e+001 -5.794291e+000  4.269737e+001
5.5164375000e+009 -1.143056e+001  1.113466e+002 -3.734288e+001  6.759480e+001  2.339367e+001 -1.276449e+001 -5.868325e+000  4.268775e+001
5.5165625000e+009 -1.138627e+001  1.095202e+002 -3.696315e+001  6.477805e+001  2.343358e+001 -1.328705e+001 -5.848700e+000  4.160336e+001
5.5166875000e+009 -1.134113e+001  1.096988e+002 -3.759043e+001  6.920529e+001  2.342469e+001 -1.341623e+001 -5.869892e+000  4.239087e+001
5.5168125000e+009 -1.132040e+001  1.097964e+002 -3.747691e+001  6.739581e+001  2.343410e+001 -1.357355e+001 -5.846666e+000  4.186479e+001
5.5169375000e+009 -1.128339e+001  1.098295e+002 -3.804810e+001  6.354224e+001  2.343960e+001 -1.368445e+001 -5.969801e+000  4.167678e+001
5.5170625000e+009 -1.125395e+001  1.095665e+002 -3.794761e+001  6.447623e+001  2.350929e+001 -1.390591e+001 -5.966793e+000  4.109216e+001
5.5171875000e+009 -1.142046e+001  1.099232e+002 -3.745207e+001  6.296397e+001  2.344781e+001 -1.434093e+001 -5.839033e+000  4.067721e+001
5.5173125000e+009 -1.125948e+001  1.086490e+002 -3.785636e+001  6.253159e+001  2.351868e+001 -1.431411e+001 -5.976401e+000  4.034896e+001
5.5174375000e+009 -1.130912e+001  1.081585e+002 -3.792779e+001  6.353318e+001  2.350974e+001 -1.490459e+001 -5.973278e+000  4.014046e+001
5.5175625000e+009 -1.118760e+001  1.082790e+002 -3.785926e+001  6.274338e+001  2.348987e+001 -1.486987e+001 -5.932537e+000  3.984962e+001
5.5176875000e+009 -1.126985e+001  1.064586e+002 -3.804309e+001  6.556626e+001  2.352229e+001 -1.519132e+001 -5.927728e+000  4.022522e+001
5.5178125000e+009 -1.122662e+001  1.074146e+002 -3.751331e+001  6.263038e+001  2.351441e+001 -1.550774e+001 -5.912401e+000  3.915397e+001
5.5179375000e+009 -1.130008e+001  1.077678e+002 -3.713424e+001  6.458313e+001  2.353107e+001 -1.568338e+001 -5.694860e+000  3.887288e+001
5.5180625000e+009 -1.133893e+001  1.070837e+002 -3.718324e+001  6.455887e+001  2.352484e+001 -1.590675e+001 -5.801024e+000  3.904707e+001
5.5181875000e+009 -1.126595e+001  1.063245e+002 -3.770834e+001  6.273254e+001  2.350850e+001 -1.595395e+001 -5.795321e+000  3.930560e+001
5.5183125000e+009 -1.124462e+001  1.064243e+002 -3.743440e+001  6.617857e+001  2.352406e+001 -1.642931e+001 -5.795145e+000  3.915818e+001
5.5184375000e+009 -1.118986e+001  1.063865e+002 -3.785869e+001  6.389951e+001  2.353264e+001 -1.690960e+001 -5.902450e+000  3.846326e+001
5.5185625000e+009 -1.127172e+001  1.055576e+002 -3.747683e+001  6.506307e+001  2.358557e+001 -1.668728e+001 -5.749142e+000  3.841615e+001
5.5186875000e+009 -1.138249e+001  1.061415e+002 -3.785764e+001  6.372317e+001  2.355622e+001 -1.700166e+001 -5.756463e+000  3.840303e+001
5.5188125000e+009 -1.111656e+001  1.055739e+002 -3.843101e+001  6.007613e+001  2.356598e+001 -1.733794e+001 -6.010789e+000  3.773942e+001
5.5189375000e+009 -1.110572e+001  1.045987e+002 -3.814651e+001  6.172404e+001  2.360617e+001 -1.740069e+001 -5.863554e+000  3.781840e+001
5.5190625000e+009 -1.132579e+001  1.058721e+002 -3.828368e+001  6.188463e+001  2.350970e+001 -1.721039e+001 -5.710420e+000  3.908724e+001
5.5191875000e+009 -1.116003e+001  1.051272e+002 -3.833134e+001  6.459758e+001  2.353756e+001 -1.813907e+001 -5.864830e+000  3.835919e+001
5.5193125000e+009 -1.108567e+001  1.045782e+002 -3.766689e+001  6.197608e+001  2.355936e+001 -1.804729e+001 -5.816753e+000  3.763507e+001
5.5194375000e+009 -1.120984e+001  1.042095e+002 -3.870463e+001  5.955183e+001  2.358618e+001 -1.841426e+001 -5.947561e+000  3.762446e+001
5.5195625000e+009 -1.119498e+001  1.037547e+002 -3.794746e+001  6.170081e+001  2.359877e+001 -1.836817e+001 -5.753093e+000  3.691645e+001
5.5196875000e+009 -1.097513e+001  1.039297e+002 -3.867035e+001  5.887223e+001  2.367570e+001 -1.855906e+001 -5.894464e+000  3.645111e+001
5.5198125000e+009 -1.126108e+001  1.034417e+002 -3.778049e+001  6.692545e+001  2.362185e+001 -1.897387e+001 -5.653172e+000  3.712360e+001
5.5199375000e+009 -1.119630e+001  1.039554e+002 -3.775860e+001  5.995938e+001  2.361858e+001 -1.953363e+001 -5.830865e+000  3.591966e+001
5.5200625000e+009 -1.099846e+001  1.030239e+002 -3.850856e+001  6.073012e+001  2.365585e+001 -1.932306e+001 -5.878935e+000  3.649542e+001
5.5201875000e+009 -1.110900e+001  1.033190e+002 -3.822818e+001  6.247337e+001  2.363826e+001 -1.952435e+001 -5.778521e+000  3.674522e+001
5.5203125000e+009 -1.107047e+001  1.017722e+002 -3.793972e+001  6.472390e+001  2.364579e+001 -2.012005e+001 -5.770173e+000  3.621444e+001
5.5204375000e+009 -1.094099e+001  1.021395e+002 -3.877206e+001  5.612072e+001  2.361612e+001 -1.936301e+001 -5.839358e+000  3.697020e+001
5.5205625000e+009 -1.127040e+001  1.016928e+002 -3.786134e+001  6.255948e+001  2.366882e+001 -2.038827e+001 -5.676172e+000  3.602272e+001
5.5206875000e+009 -1.091014e+001  1.015918e+002 -3.811737e+001  6.064493e+001  2.371731e+001 -2.035846e+001 -5.748353e+000  3.542957e+001
5.5208125000e+009 -1.089920e+001  1.008657e+002 -3.917180e+001  6.403771e+001  2.368231e+001 -2.111297e+001 -5.949365e+000  3.652108e+001
5.5209375000e+009 -1.108954e+001  1.013461e+002 -3.821075e+001  6.154068e+001  2.369285e+001 -2.060365e+001 -5.698381e+000  3.594286e+001
5.5210625000e+009 -1.100523e+001  1.018072e+002 -3.863022e+001  5.831528e+001  2.369595e+001 -2.166484e+001 -5.977634e+000  3.502617e+001
5.5211875000e+009 -1.087650e+001  1.001697e+002 -3.832957e+001  6.322799e+001  2.371469e+001 -2.154134e+001 -5.781488e+000  3.521014e+001
5.5213125000e+009 -1.107533e+001  1.012696e+002 -3.865208e+001  6.314095e+001  2.367019e+001 -2.105647e+001 -5.635260e+000  3.622026e+001
5.5214375000e+009 -1.101174e+001  1.010365e+002 -3.813896e+001  5.466135e+001  2.372767e+001 -2.219953e+001 -5.948048e+000  3.353488e+001
5.5215625000e+009 -1.087206e+001  9.998013e+001 -3.853128e+001  5.709550e+001  2.372904e+001 -2.194912e+001 -5.803047e+000  3.437187e+001
5.5216875000e+009 -1.095556e+001  1.002677e+002 -3.863151e+001  5.923674e+001  2.378630e+001 -2.221990e+001 -5.768023e+000  3.440416e+001
5.5218125000e+009 -1.089097e+001  9.998380e+001 -3.895953e+001  5.960866e+001  2.374349e+001 -2.248178e+001 -5.772351e+000  3.465762e+001
5.5219375000e+009 -1.085060e+001  9.915387e+001 -3.926025e+001  5.689425e+001  2.377143e+001 -2.287403e+001 -5.893766e+000  3.456913e+001
5.5220625000e+009 -1.092706e+001  9.941604e+001 -3.859793e+001  5.803516e+001  2.376158e+001 -2.270058e+001 -5.775925e+000  3.440655e+001
5.5221875000e+009 -1.094878e+001  9.877667e+001 -3.852997e+001  6.140659e+001  2.380260e+001 -2.414457e+001 -5.915356e+000  3.319580e+001
5.5223125000e+009 -1.068851e+001  9.817934e+001 -3.899860e+001  6.139973e+001  2.385227e+001 -2.357813e+001 -5.822612e+000  3.356116e+001
5.5224375000e+009 -1.097059e+001  9.851920e+001 -3.903062e+001  5.484950e+001  2.379213e+001 -2.327270e+001 -5.755686e+000  3.393667e+001
5.5225625000e+009 -1.083503e+001  9.863028e+001 -3.849797e+001  6.024674e+001  2.377822e+001 -2.437440e+001 -5.831599e+000  3.355095e+001
5.5226875000e+009 -1.079582e+001  9.808656e+001 -3.887846e+001  6.085093e+001  2.373332e+001 -2.417231e+001 -5.805829e+000  3.447719e+001
5.5228125000e+009 -1.097344e+001  9.762677e+001 -3.883375e+001  5.914000e+001  2.379455e+001 -2.434397e+001 -5.831297e+000  3.349486e+001
5.5229375000e+009 -1.076906e+001  9.797560e+001 -3.950390e+001  5.520272e+001  2.376273e+001 -2.467421e+001 -5.964835e+000  3.359018e+001
5.5230625000e+009 -1.079807e+001  9.690912e+001 -3.856629e+001  5.824752e+001  2.380846e+001 -2.458536e+001 -5.704925e+000  3.331159e+001
5.5231875000e+009 -1.092266e+001  9.775005e+001 -3.880933e+001  5.856988e+001  2.385142e+001 -2.482863e+001 -5.697513e+000  3.263373e+001
5.5233125000e+009 -1.071535e+001  9.718838e+001 -3.899925e+001  5.730571e+001  2.378892e+001 -2.531566e+001 -5.876485e+000  3.335750e+001
5.5234375000e+009 -1.072229e+001  9.684488e+001 -3.899582e+001  5.830185e+001  2.387211e+001 -2.558403e+001 -5.750990e+000  3.239269e+001
5.5235625000e+009 -1.074521e+001  9.651902e+001 -3.879163e+001  6.018686e+001  2.388093e+001 -2.567616e+001 -5.669971e+000  3.249089e+001
5.5236875000e+009 -1.069507e+001  9.644704e+001 -3.844751e+001  5.932388e+001  2.393628e+001 -2.627072e+001 -5.771751e+000  3.118437e+001
5.5238125000e+009 -1.072789e+001  9.640402e+001 -3.826834e+001  5.833055e+001  2.389540e+001 -2.639787e+001 -5.719549e+000  3.140403e+001
5.5239375000e+009 -1.075525e+001  9.609864e+001 -3.905698e+001  5.517307e+001  2.377906e+001 -2.626431e+001 -5.887018e+000  3.315210e+001
5.5240625000e+009 -1.069207e+001  9.552202e+001 -3.872610e+001  5.755262e+001  2.393912e+001 -2.660881e+001 -5.697516e+000  3.112070e+001
5.5241875000e+009 -1.055579e+001  9.515762e+001 -3.931518e+001  5.667880e+001  2.387230e+001 -2.719930e+001 -5.877201e+000  3.212067e+001
5.5243125000e+009 -1.069750e+001  9.529823e+001 -3.924268e+001  5.430737e+001  2.388459e+001 -2.676371e+001 -5.781455e+000  3.224778e+001
5.5244375000e+009 -1.068746e+001  9.552097e+001 -3.875246e+001  5.554755e+001  2.394401e+001 -2.788911e+001 -5.862788e+000  3.056894e+001
5.5245625000e+009 -1.060202e+001  9.461492e+001 -3.963694e+001  5.770915e+001  2.394920e+001 -2.814928e+001 -5.872919e+000  3.120537e+001
5.5246875000e+009 -1.059085e+001  9.508458e+001 -3.886315e+001  5.347170e+001  2.389710e+001 -2.762143e+001 -5.845075e+000  3.148319e+001
5.5248125000e+009 -1.068743e+001  9.459406e+001 -3.916666e+001  5.836706e+001  2.388806e+001 -2.760995e+001 -5.651800e+000  3.230066e+001
5.5249375000e+009 -1.045021e+001  9.453368e+001 -3.928476e+001  5.414892e+001  2.391508e+001 -2.803220e+001 -5.811255e+000  3.175650e+001
5.5250625000e+009 -1.056991e+001  9.464866e+001 -3.970399e+001  5.316386e+001  2.389138e+001 -2.863156e+001 -5.942557e+000  3.170286e+001
5.5251875000e+009 -1.055446e+001  9.323817e+001 -4.023860e+001  5.781623e+001  2.388389e+001 -2.885609e+001 -5.930235e+000  3.243167e+001
5.5253125000e+009 -1.041216e+001  9.450426e+001 -3.948683e+001  5.822279e+001  2.395352e+001 -2.960772e+001 -6.011106e+000  3.037640e+001
5.5254375000e+009 -1.050968e+001  9.355848e+001 -3.949759e+001  5.508669e+001  2.390800e+001 -2.899914e+001 -5.919393e+000  3.146354e+001
5.5255625000e+009 -1.041098e+001  9.281585e+001 -4.054556e+001  5.638105e+001  2.403346e+001 -2.969202e+001 -5.913760e+000  3.037909e+001
5.5256875000e+009 -1.039046e+001  9.327955e+001 -3.973655e+001  5.446354e+001  2.396163e+001 -2.970807e+001 -5.922638e+000  3.067193e+001
5.5258125000e+009 -1.041199e+001  9.321564e+001 -4.002028e+001  5.825637e+001  2.388068e+001 -2.970893e+001 -5.873196e+000  3.191939e+001
5.5259375000e+009 -1.034988e+001  9.315915e+001 -3.971642e+001  5.654635e+001  2.395961e+001 -2.984300e+001 -5.914032e+000  3.115101e+001
5.5260625000e+009 -1.030938e+001  9.356228e+001 -3.970100e+001  5.326632e+001  2.392834e+001 -2.998360e+001 -5.957563e+000  3.054292e+001
5.5261875000e+009 -1.034391e+001  9.222646e+001 -3.988664e+001  5.738241e+001  2.389587e+001 -3.042233e+001 -5.993668e+000  3.158398e+001
5.5263125000e+009 -1.033312e+001  9.213712e+001 -3.957714e+001  5.673790e+001  2.399432e+001 -3.082567e+001 -5.938434e+000  2.952477e+001
5.5264375000e+009 -1.021992e+001  9.321452e+001 -3.954930e+001  5.442302e+001  2.387858e+001 -3.062741e+001 -5.964654e+000  3.074174e+001
5.5265625000e+009 -1.029212e+001  9.233482e+001 -3.974719e+001  5.729139e+001  2.398993e+001 -3.121619e+001 -5.974340e+000  2.967251e+001
5.5266875000e+009 -1.024940e+001  9.200545e+001 -3.978305e+001  5.703598e+001  2.404422e+001 -3.099803e+001 -5.901857e+000  2.955151e+001
5.5268125000e+009 -1.012240e+001  9.233824e+001 -4.084401e+001  5.380017e+001  2.403371e+001 -3.160229e+001 -6.114470e+000  2.917674e+001
5.5269375000e+009 -1.015509e+001  9.229351e+001 -4.029657e+001  5.387392e+001  2.391193e+001 -3.186730e+001 -6.217924e+000  3.008169e+001
5.5270625000e+009 -1.018019e+001  9.123102e+001 -3.978352e+001  5.617581e+001  2.390762e+001 -3.190688e+001 -6.124825e+000  3.029264e+001
5.5271875000e+009 -1.006563e+001  9.197044e+001 -4.002103e+001  5.676843e+001  2.402916e+001 -3.213189e+001 -5.945662e+000  2.831026e+001
5.5273125000e+009 -1.007808e+001  9.158544e+001 -3.994972e+001  5.475781e+001  2.401875e+001 -3.216122e+001 -6.085248e+000  2.852707e+001
5.5274375000e+009 -1.008480e+001  9.150973e+001 -4.000218e+001  5.547405e+001  2.397677e+001 -3.270244e+001 -6.077575e+000  2.873827e+001
5.5275625000e+009 -1.004943e+001  9.211191e+001 -3.952296e+001  5.399552e+001  2.392398e+001 -3.289283e+001 -6.175751e+000  2.847347e+001
5.5276875000e+009 -9.934564e+000  9.158276e+001 -4.049928e+001  5.496861e+001  2.399467e+001 -3.288357e+001 -6.204703e+000  2.859974e+001
5.5278125000e+009 -9.995827e+000  9.096138e+001 -4.015475e+001  5.536885e+001  2.392743e+001 -3.325051e+001 -6.218696e+000  2.884941e+001
5.5279375000e+009 -9.962042e+000  9.116452e+001 -4.026172e+001  5.601048e+001  2.399643e+001 -3.354992e+001 -6.152369e+000  2.755156e+001
5.5280625000e+009 -9.937586e+000  9.112370e+001 -3.999825e+001  5.624614e+001  2.396400e+001 -3.371982e+001 -6.265845e+000  2.820332e+001
5.5281875000e+009 -9.904472e+000  9.076797e+001 -4.065172e+001  5.629352e+001  2.400089e+001 -3.371203e+001 -6.122229e+000  2.800730e+001
5.5283125000e+009 -9.873095e+000  9.094660e+001 -4.084624e+001  5.440660e+001  2.405612e+001 -3.368084e+001 -6.087941e+000  2.777600e+001
5.5284375000e+009 -9.843669e+000  9.087135e+001 -3.995168e+001  5.495130e+001  2.390453e+001 -3.415621e+001 -6.235472e+000  2.856028e+001
5.5285625000e+009 -9.828271e+000  9.016235e+001 -4.087503e+001  5.803315e+001  2.391531e+001 -3.450390e+001 -6.235808e+000  2.886736e+001
5.5286875000e+009 -9.757052e+000  9.054003e+001 -4.089904e+001  5.526688e+001  2.400811e+001 -3.466783e+001 -6.206615e+000  2.718333e+001
5.5288125000e+009 -9.796831e+000  9.056593e+001 -4.019201e+001  5.710295e+001  2.395481e+001 -3.494160e+001 -6.370611e+000  2.755515e+001
5.5289375000e+009 -9.803398e+000  9.004748e+001 -3.968487e+001  5.630279e+001  2.398635e+001 -3.522711e+001 -6.199553e+000  2.619537e+001
5.5290625000e+009 -9.781562e+000  9.015668e+001 -4.003515e+001  5.819805e+001  2.388222e+001 -3.562692e+001 -6.464834e+000  2.726494e+001
5.5291875000e+009 -9.711274e+000  9.039622e+001 -4.073693e+001  5.212851e+001  2.390924e+001 -3.556240e+001 -6.501589e+000  2.794950e+001
5.5293125000e+009 -9.687497e+000  9.000105e+001 -4.035498e+001  5.450405e+001  2.393755e+001 -3.583345e+001 -6.349737e+000  2.684990e+001
5.5294375000e+009 -9.660931e+000  9.018401e+001 -4.032079e+001  5.081911e+001  2.399362e+001 -3.589831e+001 -6.382257e+000  2.621404e+001
5.5295625000e+009 -9.632310e+000  8.990739e+001 -4.101563e+001  5.101907e+001  2.391228e+001 -3.602414e+001 -6.524672e+000  2.796315e+001
5.5296875000e+009 -9.637343e+000  8.978177e+001 -4.056147e+001  5.411525e+001  2.390378e+001 -3.641779e+001 -6.507134e+000  2.721657e+001
5.5298125000e+009 -9.610676e+000  8.959402e+001 -4.068720e+001  5.418225e+001  2.401937e+001 -3.651786e+001 -6.373032e+000  2.538896e+001
5.5299375000e+009 -9.640347e+000  8.938997e+001 -4.021246e+001  5.825861e+001  2.386499e+001 -3.703487e+001 -6.534609e+000  2.691854e+001
5.5300625000e+009 -9.611807e+000  8.949599e+001 -4.043861e+001  5.414796e+001  2.394760e+001 -3.704696e+001 -6.430663e+000  2.595316e+001
5.5301875000e+009 -9.562869e+000  8.926881e+001 -4.039992e+001  5.490952e+001  2.391448e+001 -3.735072e+001 -6.581237e+000  2.651586e+001
5.5303125000e+009 -9.518113e+000  8.917927e+001 -4.114141e+001  5.581947e+001  2.391358e+001 -3.779208e+001 -6.715703e+000  2.575290e+001
5.5304375000e+009 -9.500493e+000  8.919018e+001 -4.124605e+001  5.044309e+001  2.399544e+001 -3.755043e+001 -6.536333e+000  2.478919e+001
5.5305625000e+009 -9.472731e+000  8.909960e+001 -4.111101e+001  5.160755e+001  2.396976e+001 -3.810241e+001 -6.574634e+000  2.436093e+001
5.5306875000e+009 -9.458106e+000  8.898607e+001 -4.099378e+001  5.186551e+001  2.395805e+001 -3.809850e+001 -6.536712e+000  2.470745e+001
5.5308125000e+009 -9.444877e+000  8.902931e+001 -4.077357e+001  5.101014e+001  2.382668e+001 -3.813108e+001 -6.614547e+000  2.762035e+001
5.5309375000e+009 -9.480002e+000  8.879639e+001 -4.036453e+001  5.644295e+001  2.390778e+001 -3.860782e+001 -6.707418e+000  2.494767e+001
5.5310625000e+009 -9.450334e+000  8.871417e+001 -4.052919e+001  5.346182e+001  2.389848e+001 -3.857335e+001 -6.698857e+000  2.525482e+001
5.5311875000e+009 -9.435926e+000  8.887357e+001 -4.002924e+001  5.038311e+001  2.391988e+001 -3.910461e+001 -6.732314e+000  2.351190e+001
5.5313125000e+009 -9.394506e+000  8.822814e+001 -4.098254e+001  5.660854e+001  2.397882e+001 -3.961152e+001 -6.706072e+000  2.270310e+001
5.5314375000e+009 -9.387836e+000  8.867691e+001 -4.081402e+001  5.278595e+001  2.386146e+001 -3.945006e+001 -6.793149e+000  2.541527e+001
5.5315625000e+009 -9.357584e+000  8.831982e+001 -4.120965e+001  5.477414e+001  2.389503e+001 -3.980288e+001 -6.780496e+000  2.464121e+001
5.5316875000e+009 -9.319037e+000  8.826678e+001 -4.122930e+001  5.098673e+001  2.390321e+001 -4.011316e+001 -6.760492e+000  2.352335e+001
5.5318125000e+009 -9.324739e+000  8.808880e+001 -4.104405e+001  5.567207e+001  2.388538e+001 -4.006195e+001 -6.785002e+000  2.467127e+001
5.5319375000e+009 -9.325264e+000  8.820455e+001 -4.081931e+001  5.358657e+001  2.392105e+001 -4.041029e+001 -6.723263e+000  2.236512e+001
5.5320625000e+009 -9.289042e+000  8.785992e+001 -4.150574e+001  5.606498e+001  2.390665e+001 -4.052804e+001 -6.765640e+000  2.383014e+001
5.5321875000e+009 -9.283614e+000  8.774889e+001 -4.153080e+001  5.568055e+001  2.387978e+001 -4.087143e+001 -6.897376e+000  2.450406e+001
5.5323125000e+009 -9.245437e+000  8.773075e+001 -4.171623e+001  5.679977e+001  2.390253e+001 -4.116547e+001 -6.811961e+000  2.326151e+001
5.5324375000e+009 -9.226963e+000  8.785470e+001 -4.103686e+001  4.889982e+001  2.388179e+001 -4.132024e+001 -6.948099e+000  2.222738e+001
5.5325625000e+009 -9.218351e+000  8.787058e+001 -4.059252e+001  5.093801e+001  2.383855e+001 -4.159086e+001 -7.088954e+000  2.311448e+001
5.5326875000e+009 -9.199043e+000  8.768945e+001 -4.112870e+001  4.928615e+001  2.380272e+001 -4.193882e+001 -7.097575e+000  2.362489e+001
5.5328125000e+009 -9.183584e+000  8.746763e+001 -4.124026e+001  4.890477e+001  2.384597e+001 -4.222190e+001 -7.173220e+000  2.306455e+001
5.5329375000e+009 -9.171414e+000  8.748511e+001 -4.106290e+001  5.107675e+001  2.380979e+001 -4.217821e+001 -7.118057e+000  2.271219e+001
5.5330625000e+009 -9.162308e+000  8.740324e+001 -4.129792e+001  5.011369e+001  2.384000e+001 -4.248345e+001 -7.058022e+000  2.239424e+001
5.5331875000e+009 -9.136298e+000  8.737347e+001 -4.139277e+001  4.579689e+001  2.382446e+001 -4.283704e+001 -7.157224e+000  2.139353e+001
5.5333125000e+009 -9.130960e+000  8.739673e+001 -4.129489e+001  5.158506e+001  2.382417e+001 -4.279218e+001 -7.169119e+000  2.219752e+001
5.5334375000e+009 -9.115211e+000  8.694749e+001 -4.183727e+001  5.284380e+001  2.376617e+001 -4.291110e+001 -7.204696e+000  2.209996e+001
5.5335625000e+009 -9.093529e+000  8.692249e+001 -4.216708e+001  5.549259e+001  2.380575e+001 -4.351186e+001 -7.209630e+000  2.309870e+001
5.5336875000e+009 -9.107172e+000  8.702605e+001 -4.137830e+001  4.980512e+001  2.378914e+001 -4.350060e+001 -7.216058e+000  2.144473e+001
5.5338125000e+009 -9.071953e+000  8.705238e+001 -4.111454e+001  4.984190e+001  2.377574e+001 -4.364251e+001 -7.272275e+000  2.155012e+001
5.5339375000e+009 -9.059447e+000  8.671210e+001 -4.131775e+001  4.700129e+001  2.375349e+001 -4.393356e+001 -7.351779e+000  2.169304e+001
5.5340625000e+009 -9.070243e+000  8.693350e+001 -4.154166e+001  5.153617e+001  2.381886e+001 -4.407158e+001 -7.379636e+000  2.220867e+001
5.5341875000e+009 -9.063989e+000  8.682150e+001 -4.062599e+001  5.227854e+001  2.375574e+001 -4.469574e+001 -7.226873e+000  2.030757e+001
5.5343125000e+009 -9.058855e+000  8.652315e+001 -4.152505e+001  5.178637e+001  2.372291e+001 -4.468787e+001 -7.451609e+000  2.040048e+001
5.5344375000e+009 -8.993936e+000  8.667014e+001 -4.161879e+001  4.933730e+001  2.373900e+001 -4.483240e+001 -7.380116e+000  2.053965e+001
5.5345625000e+009 -9.020000e+000  8.635513e+001 -4.176382e+001  5.665331e+001  2.372970e+001 -4.516948e+001 -7.276947e+000  2.059672e+001
5.5346875000e+009 -8.986012e+000  8.626213e+001 -4.179113e+001  5.043181e+001  2.374078e+001 -4.502147e+001 -7.429981e+000  2.102526e+001
5.5348125000e+009 -8.991589e+000  8.638766e+001 -4.172789e+001  5.557006e+001  2.367136e+001 -4.574901e+001 -7.403483e+000  2.016633e+001
5.5349375000e+009 -8.963639e+000  8.654042e+001 -4.117596e+001  4.575226e+001  2.370036e+001 -4.549255e+001 -7.634137e+000  1.971177e+001
5.5350625000e+009 -8.969953e+000  8.628281e+001 -4.133503e+001  4.846602e+001  2.366669e+001 -4.587333e+001 -7.745227e+000  2.007977e+001
5.5351875000e+009 -8.962953e+000  8.627962e+001 -4.130363e+001  5.408138e+001  2.366870e+001 -4.626267e+001 -7.406559e+000  1.941445e+001
5.5353125000e+009 -8.946658e+000  8.616818e+001 -4.174897e+001  5.262987e+001  2.362891e+001 -4.656423e+001 -7.480045e+000  1.977232e+001
5.5354375000e+009 -8.923569e+000  8.572231e+001 -4.213509e+001  4.573483e+001  2.368540e+001 -4.641241e+001 -7.793948e+000  1.991693e+001
5.5355625000e+009 -8.917987e+000  8.561035e+001 -4.197637e+001  4.932730e+001  2.362110e+001 -4.683403e+001 -7.659483e+000  1.935322e+001
5.5356875000e+009 -8.915170e+000  8.603370e+001 -4.161707e+001  5.478698e+001  2.362503e+001 -4.679180e+001 -7.581599e+000  1.943533e+001
5.5358125000e+009 -8.899264e+000  8.578834e+001 -4.121193e+001  5.094522e+001  2.360947e+001 -4.718463e+001 -7.822665e+000  1.892537e+001
5.5359375000e+009 -8.877249e+000  8.589996e+001 -4.222134e+001  4.781126e+001  2.362244e+001 -4.766816e+001 -7.651322e+000  1.945641e+001
5.5360625000e+009 -8.880700e+000  8.573550e+001 -4.151879e+001  5.197686e+001  2.359691e+001 -4.747931e+001 -7.731379e+000  1.873767e+001
5.5361875000e+009 -8.858812e+000  8.550438e+001 -4.155552e+001  4.858152e+001  2.359390e+001 -4.773011e+001 -7.843416e+000  1.841058e+001
5.5363125000e+009 -8.868592e+000  8.550385e+001 -4.178462e+001  5.110160e+001  2.359674e+001 -4.794292e+001 -7.802366e+000  1.880449e+001
5.5364375000e+009 -8.810928e+000  8.569639e+001 -4.201396e+001  4.837187e+001  2.357883e+001 -4.810285e+001 -7.830725e+000  1.851628e+001
5.5365625000e+009 -8.844655e+000  8.502631e+001 -4.227906e+001  5.117384e+001  2.357960e+001 -4.814878e+001 -7.936896e+000  1.865093e+001
5.5366875000e+009 -8.841599e+000  8.532686e+001 -4.158696e+001  5.271718e+001  2.358147e+001 -4.873429e+001 -7.839761e+000  1.789954e+001
5.5368125000e+009 -8.788254e+000  8.536968e+001 -4.258290e+001  4.997961e+001  2.351307e+001 -4.848355e+001 -7.945149e+000  1.854392e+001
5.5369375000e+009 -8.796176e+000  8.518539e+001 -4.252238e+001  5.115644e+001  2.355505e+001 -4.871839e+001 -8.044176e+000  1.789687e+001
5.5370625000e+009 -8.792524e+000  8.528307e+001 -4.177603e+001  4.954974e+001  2.353862e+001 -4.910421e+001 -7.935785e+000  1.777263e+001
5.5371875000e+009 -8.783561e+000  8.539366e+001 -4.206293e+001  4.872432e+001  2.355498e+001 -4.939544e+001 -7.974235e+000  1.785690e+001
5.5373125000e+009 -8.766182e+000  8.497266e+001 -4.228524e+001  5.170762e+001  2.359223e+001 -4.952638e+001 -8.111013e+000  1.739617e+001
5.5374375000e+009 -8.770264e+000  8.489389e+001 -4.193739e+001  5.292678e+001  2.347035e+001 -5.027301e+001 -7.916693e+000  1.696322e+001
5.5375625000e+009 -8.752316e+000  8.519241e+001 -4.189449e+001  5.550919e+001  2.349530e+001 -4.937106e+001 -8.090364e+000  1.723932e+001
5.5376875000e+009 -8.778038e+000  8.470092e+001 -4.249294e+001  5.148633e+001  2.344876e+001 -5.033648e+001 -8.114799e+000  1.703584e+001
5.5378125000e+009 -8.757666e+000  8.482735e+001 -4.211196e+001  5.091914e+001  2.346900e+001 -5.056875e+001 -8.094533e+000  1.675524e+001
5.5379375000e+009 -8.723302e+000  8.518905e+001 -4.242052e+001  4.940952e+001  2.340701e+001 -5.030594e+001 -8.181843e+000  1.686257e+001
5.5380625000e+009 -8.716915e+000  8.471790e+001 -4.219208e+001  5.111146e+001  2.341393e+001 -5.067623e+001 -8.206927e+000  1.598994e+001
5.5381875000e+009 -8.670229e+000  8.491064e+001 -4.201278e+001  5.015558e+001  2.347106e+001 -5.141372e+001 -8.155017e+000  1.604724e+001
5.5383125000e+009 -8.707311e+000  8.516555e+001 -4.159350e+001  5.387941e+001  2.345664e+001 -5.171557e+001 -8.155467e+000  1.541389e+001
5.5384375000e+009 -8.643275e+000  8.486772e+001 -4.174660e+001  4.791930e+001  2.339883e+001 -5.116793e+001 -8.316213e+000  1.479787e+001
5.5385625000e+009 -8.660815e+000  8.478272e+001 -4.156005e+001  4.645557e+001  2.338474e+001 -5.176661e+001 -8.331200e+000  1.479130e+001
5.5386875000e+009 -8.639495e+000  8.542237e+001 -4.217170e+001  4.485566e+001  2.336306e+001 -5.194288e+001 -8.380480e+000  1.497218e+001
5.5388125000e+009 -8.623340e+000  8.476088e+001 -4.241656e+001  4.682145e+001  2.338579e+001 -5.163958e+001 -8.412406e+000  1.449553e+001
5.5389375000e+009 -8.632239e+000  8.482413e+001 -4.198781e+001  4.936024e+001  2.337286e+001 -5.165428e+001 -8.369188e+000  1.394964e+001
5.5390625000e+009 -8.599860e+000  8.532127e+001 -4.200628e+001  5.287989e+001  2.333315e+001 -5.263134e+001 -8.355209e+000  1.355583e+001
5.5391875000e+009 -8.625992e+000  8.497636e+001 -4.247878e+001  5.290260e+001  2.337324e+001 -5.221910e+001 -8.378905e+000  1.316893e+001
5.5393125000e+009 -8.598551e+000  8.491000e+001 -4.217144e+001  5.094275e+001  2.333641e+001 -5.315899e+001 -8.393632e+000  1.330444e+001
5.5394375000e+009 -8.604524e+000  8.531190e+001 -4.203122e+001  5.246584e+001  2.336590e+001 -5.331850e+001 -8.452022e+000  1.340973e+001
5.5395625000e+009 -8.553952e+000  8.470283e+001 -4.241879e+001  4.880327e+001  2.332301e+001 -5.317574e+001 -8.528699e+000  1.262306e+001
5.5396875000e+009 -8.588975e+000  8.494079e+001 -4.201403e+001  5.532279e+001  2.319166e+001 -5.349037e+001 -8.443848e+000  1.272360e+001
5.5398125000e+009 -8.574094e+000  8.502763e+001 -4.189135e+001  5.172269e+001  2.329019e+001 -5.342416e+001 -8.499967e+000  1.245689e+001
5.5399375000e+009 -8.525941e+000  8.505081e+001 -4.260958e+001  4.407460e+001  2.326407e+001 -5.301102e+001 -8.607229e+000  1.223222e+001
5.5400625000e+009 -8.545590e+000  8.504117e+001 -4.198446e+001  4.672840e+001  2.333070e+001 -5.343700e+001 -8.568897e+000  1.126518e+001
5.5401875000e+009 -8.530528e+000  8.516010e+001 -4.220748e+001  4.801867e+001  2.326265e+001 -5.361331e+001 -8.577774e+000  1.147592e+001
5.5403125000e+009 -8.536510e+000  8.472353e+001 -4.221516e+001  5.526805e+001  2.324867e+001 -5.437950e+001 -8.543965e+000  1.108383e+001
5.5404375000e+009 -8.525178e+000  8.498116e+001 -4.233121e+001  4.810133e+001  2.326931e+001 -5.467725e+001 -8.681350e+000  1.070034e+001
5.5405625000e+009 -8.518892e+000  8.526933e+001 -4.186974e+001  5.021446e+001  2.325422e+001 -5.508593e+001 -8.681726e+000  1.049486e+001
5.5406875000e+009 -8.523956e+000  8.501575e+001 -4.275156e+001  5.118050e+001  2.313898e+001 -5.501785e+001 -8.698276e+000  1.075109e+001
5.5408125000e+009 -8.528473e+000  8.499268e+001 -4.233966e+001  5.174564e+001  2.316122e+001 -5.527309e+001 -8.651721e+000  9.939024e+000
5.5409375000e+009 -8.497436e+000  8.525309e+001 -4.199923e+001  5.363127e+001  2.325496e+001 -5.546294e+001 -8.674755e+000  9.781427e+000
5.5410625000e+009 -8.488837e+000  8.493027e+001 -4.224019e+001  4.769197e+001  2.314410e+001 -5.503715e+001 -8.696789e+000  9.224018e+000
5.5411875000e+009 -8.490185e+000  8.506541e+001 -4.212590e+001  4.833836e+001  2.314742e+001 -5.561004e+001 -8.781693e+000  8.823556e+000
5.5413125000e+009 -8.462669e+000  8.503667e+001 -4.303446e+001  5.144534e+001  2.320949e+001 -5.607597e+001 -8.817636e+000  8.979295e+000
5.5414375000e+009 -8.427704e+000  8.485162e+001 -4.242201e+001  4.535539e+001  2.306947e+001 -5.517970e+001 -8.804423e+000  8.572989e+000
5.5415625000e+009 -8.440442e+000  8.500995e+001 -4.263279e+001  4.745675e+001  2.318119e+001 -5.566668e+001 -8.823056e+000  8.219546e+000
5.5416875000e+009 -8.451715e+000  8.498361e+001 -4.388908e+001  4.924374e+001  2.314667e+001 -5.645059e+001 -8.857481e+000  8.941567e+000
5.5418125000e+009 -8.439210e+000  8.487126e+001 -4.277774e+001  4.729789e+001  2.304518e+001 -5.604624e+001 -8.858968e+000  8.327644e+000
5.5419375000e+009 -8.445613e+000  8.487562e+001 -4.201125e+001  5.148818e+001  2.302810e+001 -5.611515e+001 -8.799825e+000  7.340002e+000
5.5420625000e+009 -8.455040e+000  8.519943e+001 -4.218441e+001  4.377801e+001  2.316725e+001 -5.736473e+001 -9.082294e+000  6.691989e+000
5.5421875000e+009 -8.437904e+000  8.500240e+001 -4.314948e+001  4.952333e+001  2.299883e+001 -5.757409e+001 -9.030233e+000  7.669426e+000
5.5423125000e+009 -8.425060e+000  8.498192e+001 -4.245308e+001  4.556882e+001  2.297461e+001 -5.712917e+001 -8.951612e+000  6.976369e+000
5.5424375000e+009 -8.419235e+000  8.505945e+001 -4.262700e+001  4.889513e+001  2.307498e+001 -5.705907e+001 -8.879514e+000  6.594866e+000
5.5425625000e+009 -8.441045e+000  8.502176e+001 -4.282330e+001  4.824746e+001  2.300387e+001 -5.716015e+001 -8.884578e+000  6.752163e+000
5.5426875000e+009 -8.411408e+000  8.493731e+001 -4.272492e+001  5.321540e+001  2.303116e+001 -5.774179e+001 -8.898027e+000  6.177591e+000
5.5428125000e+009 -8.386190e+000  8.488337e+001 -4.221710e+001  4.725968e+001  2.297760e+001 -5.760381e+001 -8.988981e+000  6.199228e+000
5.5429375000e+009 -8.422281e+000  8.501089e+001 -4.261750e+001  5.343056e+001  2.294424e+001 -5.792269e+001 -8.882278e+000  5.759166e+000
5.5430625000e+009 -8.404851e+000  8.486088e+001 -4.224167e+001  5.281944e+001  2.293605e+001 -5.777156e+001 -8.912444e+000  5.230517e+000
5.5431875000e+009 -8.417218e+000  8.514082e+001 -4.225216e+001  4.751032e+001  2.295178e+001 -5.801872e+001 -8.952517e+000  5.084810e+000
5.5433125000e+009 -8.398027e+000  8.500569e+001 -4.362841e+001  4.834761e+001  2.290401e+001 -5.799919e+001 -9.079831e+000  6.153179e+000
5.5434375000e+009 -8.377213e+000  8.482384e+001 -4.295691e+001  4.769343e+001  2.298505e+001 -5.890126e+001 -9.072595e+000  3.923093e+000
5.5435625000e+009 -8.382649e+000  8.492727e+001 -4.278521e+001  4.969306e+001  2.294975e+001 -5.879253e+001 -9.070689e+000  4.779389e+000
5.5436875000e+009 -8.358603e+000  8.487948e+001 -4.248816e+001  4.210559e+001  2.282219e+001 -5.873293e+001 -9.120078e+000  4.814767e+000
5.5438125000e+009 -8.368201e+000  8.487544e+001 -4.249617e+001  4.752115e+001  2.284519e+001 -5.903843e+001 -9.130659e+000  4.690325e+000
5.5439375000e+009 -8.379466e+000  8.510684e+001 -4.252249e+001  4.925647e+001  2.287507e+001 -5.907904e+001 -9.128187e+000  4.070952e+000
5.5440625000e+009 -8.378578e+000  8.491552e+001 -4.217708e+001  4.743869e+001  2.285471e+001 -5.887400e+001 -8.972831e+000  3.854221e+000
5.5441875000e+009 -8.358786e+000  8.492743e+001 -4.270198e+001  4.530126e+001  2.280600e+001 -5.913835e+001 -9.079839e+000  3.994827e+000
5.5443125000e+009 -8.362036e+000  8.495725e+001 -4.261146e+001  5.099379e+001  2.284998e+001 -5.978709e+001 -9.163759e+000  3.220939e+000
5.5444375000e+009 -8.366652e+000  8.497704e+001 -4.235529e+001  5.229147e+001  2.284569e+001 -5.990178e+001 -9.141908e+000  2.429546e+000
5.5445625000e+009 -8.335924e+000  8.481213e+001 -4.296311e+001  4.351947e+001  2.271039e+001 -5.993095e+001 -9.243700e+000  3.977304e+000
5.5446875000e+009 -8.341367e+000  8.493697e+001 -4.307721e+001  4.570848e+001  2.281449e+001 -5.993169e+001 -9.117311e+000  2.568918e+000
5.5448125000e+009 -8.345461e+000  8.487824e+001 -4.345512e+001  4.749475e+001  2.274959e+001 -6.036701e+001 -9.195482e+000  3.697652e+000
5.5449375000e+009 -8.348386e+000  8.486426e+001 -4.251587e+001  4.929852e+001  2.280648e+001 -6.014688e+001 -9.092787e+000  2.138182e+000
5.5450625000e+009 -8.338959e+000  8.503376e+001 -4.335319e+001  4.463332e+001  2.285533e+001 -6.049106e+001 -9.165499e+000  9.778907e-001
5.5451875000e+009 -8.332233e+000  8.481937e+001 -4.306625e+001  4.852852e+001  2.270677e+001 -6.054100e+001 -9.152660e+000  3.221015e+000
5.5453125000e+009 -8.347117e+000  8.482117e+001 -4.317101e+001  5.184568e+001  2.273728e+001 -6.088897e+001 -9.087083e+000  1.635000e+000
5.5454375000e+009 -8.337001e+000  8.493322e+001 -4.278680e+001  5.114588e+001  2.279178e+001 -6.095665e+001 -9.121286e+000  1.149780e+000
5.5455625000e+009 -8.332367e+000  8.482727e+001 -4.258445e+001  4.994918e+001  2.266921e+001 -6.154544e+001 -9.257113e+000  1.958105e+000
5.5456875000e+009 -8.326072e+000  8.473575e+001 -4.302079e+001  4.880836e+001  2.265969e+001 -6.128737e+001 -9.154334e+000  2.055418e+000
5.5458125000e+009 -8.314597e+000  8.485323e+001 -4.315549e+001  4.877227e+001  2.274771e+001 -6.138080e+001 -9.295348e+000  8.526860e-001
5.5459375000e+009 -8.317780e+000  8.481826e+001 -4.278665e+001  4.674050e+001  2.269109e+001 -6.166906e+001 -9.226099e+000  1.372569e+000
5.5460625000e+009 -8.317430e+000  8.481952e+001 -4.300918e+001  4.466416e+001  2.266577e+001 -6.198709e+001 -9.315538e+000  1.121696e+000
5.5461875000e+009 -8.319602e+000  8.488190e+001 -4.265996e+001  4.300331e+001  2.271937e+001 -6.171211e+001 -9.216999e+000 -4.750405e-002
5.5463125000e+009 -8.310318e+000  8.488929e+001 -4.218967e+001  4.472186e+001  2.270299e+001 -6.229750e+001 -9.333373e+000 -1.606037e+000
