# Hz  S  DB  R  50
! ADVANTEST Corporation R3860A
! Date: Wed Apr 11 19:52:40 2007
5.3463125000e+009 -5.184467e+000  3.891976e+000 -3.577435e+001 -3.204497e+001  2.759194e+001 -1.725488e+002 -5.245794e+000  6.531080e+001
5.3464375000e+009 -5.171494e+000  3.728946e+000 -3.558485e+001 -3.226796e+001  2.750948e+001 -1.724606e+002 -5.266283e+000  6.524849e+001
5.3465625000e+009 -5.078326e+000  3.546049e+000 -3.616788e+001 -3.297611e+001  2.754321e+001 -1.730333e+002 -5.326079e+000  6.506107e+001
5.3466875000e+009 -5.075171e+000  3.337399e+000 -3.581485e+001 -3.016529e+001  2.757107e+001 -1.736323e+002 -5.383957e+000  6.539771e+001
5.3468125000e+009 -5.053741e+000  3.300759e+000 -3.539419e+001 -3.186247e+001  2.740996e+001 -1.734368e+002 -5.392743e+000  6.532021e+001
5.3469375000e+009 -4.962203e+000  2.861644e+000 -3.603108e+001 -3.128469e+001  2.754167e+001 -1.739510e+002 -5.497539e+000  6.521177e+001
5.3470625000e+009 -4.962602e+000  2.883459e+000 -3.561966e+001 -3.246426e+001  2.745629e+001 -1.741048e+002 -5.515183e+000  6.507681e+001
5.3471875000e+009 -4.882340e+000  2.387943e+000 -3.604313e+001 -2.920838e+001  2.735901e+001 -1.746367e+002 -5.583776e+000  6.479642e+001
5.3473125000e+009 -4.890429e+000  2.618980e+000 -3.545819e+001 -3.262612e+001  2.750808e+001 -1.750051e+002 -5.594172e+000  6.563663e+001
5.3474375000e+009 -4.801966e+000  2.364089e+000 -3.616111e+001 -3.349550e+001  2.753342e+001 -1.752531e+002 -5.650524e+000  6.529976e+001
5.3475625000e+009 -4.786076e+000  2.136735e+000 -3.610189e+001 -3.215883e+001  2.742521e+001 -1.756212e+002 -5.687064e+000  6.503180e+001
5.3476875000e+009 -4.766798e+000  2.078803e+000 -3.589048e+001 -3.093275e+001  2.750515e+001 -1.760696e+002 -5.733480e+000  6.545473e+001
5.3478125000e+009 -4.738763e+000  1.915942e+000 -3.546324e+001 -3.270001e+001  2.749562e+001 -1.758882e+002 -5.789607e+000  6.562535e+001
5.3479375000e+009 -4.689005e+000  1.851470e+000 -3.572935e+001 -3.587608e+001  2.748995e+001 -1.763295e+002 -5.742958e+000  6.559898e+001
5.3480625000e+009 -4.662070e+000  1.725073e+000 -3.569096e+001 -3.440723e+001  2.765118e+001 -1.767294e+002 -5.917944e+000  6.565768e+001
5.3481875000e+009 -4.603836e+000  1.424427e+000 -3.579922e+001 -3.422753e+001  2.753147e+001 -1.773212e+002 -5.876813e+000  6.574855e+001
5.3483125000e+009 -4.598239e+000  1.366304e+000 -3.535450e+001 -3.349134e+001  2.732459e+001 -1.768268e+002 -5.908190e+000  6.545192e+001
5.3484375000e+009 -4.541893e+000  1.177853e+000 -3.570103e+001 -3.388929e+001  2.754864e+001 -1.771280e+002 -6.059713e+000  6.574236e+001
5.3485625000e+009 -4.508553e+000  7.957476e-001 -3.553508e+001 -3.227760e+001  2.736137e+001 -1.782750e+002 -5.982046e+000  6.575531e+001
5.3486875000e+009 -4.466418e+000  7.497537e-001 -3.544300e+001 -3.281082e+001  2.730077e+001 -1.781655e+002 -6.041569e+000  6.553159e+001
5.3488125000e+009 -4.422804e+000  5.707192e-001 -3.558875e+001 -3.407726e+001  2.739609e+001 -1.783311e+002 -6.051444e+000  6.574527e+001
5.3489375000e+009 -4.428117e+000  4.445513e-001 -3.486465e+001 -3.361951e+001  2.741271e+001 -1.789018e+002 -6.132882e+000  6.631213e+001
5.3490625000e+009 -4.345422e+000  2.454142e-001 -3.571484e+001 -3.404815e+001  2.746767e+001 -1.791395e+002 -6.162464e+000  6.581315e+001
5.3491875000e+009 -4.347673e+000  1.772471e-001 -3.543021e+001 -3.604255e+001  2.754728e+001 -1.790146e+002 -6.264781e+000  6.643195e+001
5.3493125000e+009 -4.286116e+000 -3.702563e-002 -3.549781e+001 -3.457138e+001  2.738951e+001 -1.798497e+002 -6.227815e+000  6.631382e+001
5.3494375000e+009 -4.250710e+000 -2.292519e-001 -3.562241e+001 -3.406573e+001  2.718617e+001  1.796966e+002 -6.217806e+000  6.576302e+001
5.3495625000e+009 -4.176226e+000 -3.036151e-001 -3.575516e+001 -3.505204e+001  2.738756e+001  1.798833e+002 -6.337976e+000  6.607077e+001
5.3496875000e+009 -4.141150e+000 -7.978537e-001 -3.583923e+001 -3.327391e+001  2.731433e+001  1.794532e+002 -6.390273e+000  6.602000e+001
5.3498125000e+009 -4.107330e+000 -9.929647e-001 -3.590255e+001 -3.323796e+001  2.740572e+001  1.792022e+002 -6.474925e+000  6.626150e+001
5.3499375000e+009 -4.134547e+000 -8.867027e-001 -3.565966e+001 -3.492835e+001  2.739206e+001  1.789894e+002 -6.493550e+000  6.618067e+001
5.3500625000e+009 -4.077645e+000 -9.821741e-001 -3.513906e+001 -3.606388e+001  2.743734e+001  1.787999e+002 -6.497247e+000  6.652587e+001
5.3501875000e+009 -4.038039e+000 -1.203418e+000 -3.572342e+001 -3.569379e+001  2.728923e+001  1.786307e+002 -6.517323e+000  6.597303e+001
5.3503125000e+009 -4.021525e+000 -1.247716e+000 -3.537669e+001 -3.580223e+001  2.745519e+001  1.787502e+002 -6.576540e+000  6.656716e+001
5.3504375000e+009 -3.883778e+000 -1.236408e+000 -3.530351e+001 -3.866927e+001  2.729152e+001  1.775800e+002 -6.509700e+000  6.659887e+001
5.3505625000e+009 -3.903635e+000 -1.335986e+000 -3.517014e+001 -3.743736e+001  2.732910e+001  1.774353e+002 -6.538887e+000  6.689993e+001
5.3506875000e+009 -3.854604e+000 -1.428963e+000 -3.528886e+001 -3.616380e+001  2.730340e+001  1.769484e+002 -6.643136e+000  6.695577e+001
5.3508125000e+009 -3.808089e+000 -1.402848e+000 -3.493153e+001 -3.947272e+001  2.730198e+001  1.776399e+002 -6.684297e+000  6.692708e+001
5.3509375000e+009 -3.778792e+000 -1.553386e+000 -3.511958e+001 -4.001021e+001  2.711398e+001  1.759600e+002 -6.543408e+000  6.689232e+001
5.3510625000e+009 -3.685648e+000 -1.842600e+000 -3.576480e+001 -3.626582e+001  2.737877e+001  1.765713e+002 -6.836852e+000  6.688876e+001
5.3511875000e+009 -3.670112e+000 -1.916558e+000 -3.510228e+001 -3.829010e+001  2.732931e+001  1.768552e+002 -6.792888e+000  6.695177e+001
5.3513125000e+009 -3.613050e+000 -2.019450e+000 -3.444044e+001 -3.866046e+001  2.720348e+001  1.756660e+002 -6.741741e+000  6.737391e+001
5.3514375000e+009 -3.566090e+000 -1.947130e+000 -3.493544e+001 -3.740007e+001  2.732005e+001  1.759238e+002 -6.843335e+000  6.749014e+001
5.3515625000e+009 -3.522635e+000 -2.204249e+000 -3.499657e+001 -3.633171e+001  2.743272e+001  1.763113e+002 -7.048058e+000  6.744925e+001
5.3516875000e+009 -3.519818e+000 -2.461895e+000 -3.482815e+001 -3.991084e+001  2.723596e+001  1.755840e+002 -6.901257e+000  6.737757e+001
5.3518125000e+009 -3.479960e+000 -2.302844e+000 -3.494049e+001 -4.059911e+001  2.727897e+001  1.752687e+002 -6.925944e+000  6.727124e+001
5.3519375000e+009 -3.348783e+000 -2.545967e+000 -3.458748e+001 -3.616197e+001  2.714079e+001  1.745004e+002 -6.890992e+000  6.785461e+001
5.3520625000e+009 -3.344000e+000 -2.599595e+000 -3.439814e+001 -3.919766e+001  2.719678e+001  1.745748e+002 -6.987856e+000  6.790045e+001
5.3521875000e+009 -3.263022e+000 -2.786820e+000 -3.519090e+001 -4.015093e+001  2.717899e+001  1.744588e+002 -6.965780e+000  6.742835e+001
5.3523125000e+009 -3.233489e+000 -2.841883e+000 -3.460262e+001 -4.022647e+001  2.725208e+001  1.746522e+002 -7.178315e+000  6.763709e+001
5.3524375000e+009 -3.201894e+000 -2.760332e+000 -3.533138e+001 -3.838287e+001  2.717930e+001  1.740851e+002 -7.124353e+000  6.766231e+001
5.3525625000e+009 -3.201901e+000 -2.959964e+000 -3.442345e+001 -4.058675e+001  2.718099e+001  1.742641e+002 -7.226154e+000  6.742691e+001
5.3526875000e+009 -3.144710e+000 -3.205889e+000 -3.528653e+001 -4.018599e+001  2.718318e+001  1.740946e+002 -7.239157e+000  6.718549e+001
5.3528125000e+009 -3.098255e+000 -3.211678e+000 -3.485040e+001 -4.304204e+001  2.710056e+001  1.724229e+002 -7.046981e+000  6.794405e+001
5.3529375000e+009 -3.031171e+000 -3.595702e+000 -3.505958e+001 -3.916459e+001  2.714442e+001  1.732821e+002 -7.310882e+000  6.774199e+001
5.3530625000e+009 -2.969255e+000 -3.481022e+000 -3.518553e+001 -3.804817e+001  2.711247e+001  1.721411e+002 -7.213839e+000  6.836863e+001
5.3531875000e+009 -2.910546e+000 -3.920348e+000 -3.428663e+001 -4.237460e+001  2.709202e+001  1.723936e+002 -7.226901e+000  6.821597e+001
5.3533125000e+009 -2.947052e+000 -4.002196e+000 -3.490126e+001 -3.394443e+001  2.709037e+001  1.722195e+002 -7.382370e+000  6.852528e+001
5.3534375000e+009 -2.852050e+000 -3.584032e+000 -3.490860e+001 -3.820918e+001  2.707040e+001  1.722280e+002 -7.415421e+000  6.807246e+001
5.3535625000e+009 -2.819850e+000 -4.005739e+000 -3.430398e+001 -4.183960e+001  2.707202e+001  1.716161e+002 -7.335612e+000  6.867986e+001
5.3536875000e+009 -2.762554e+000 -4.094717e+000 -3.510061e+001 -4.181878e+001  2.707064e+001  1.714916e+002 -7.401280e+000  6.822378e+001
5.3538125000e+009 -2.688320e+000 -3.744557e+000 -3.478718e+001 -4.287261e+001  2.708809e+001  1.719563e+002 -7.406332e+000  6.802066e+001
5.3539375000e+009 -2.686653e+000 -4.645976e+000 -3.473202e+001 -4.726971e+001  2.702000e+001  1.711400e+002 -7.308971e+000  6.781013e+001
5.3540625000e+009 -2.620581e+000 -4.638565e+000 -3.497878e+001 -4.368563e+001  2.706031e+001  1.703114e+002 -7.374572e+000  6.888291e+001
5.3541875000e+009 -2.537173e+000 -4.401493e+000 -3.492877e+001 -4.281327e+001  2.710184e+001  1.713844e+002 -7.632983e+000  6.818710e+001
5.3543125000e+009 -2.560023e+000 -4.564950e+000 -3.434921e+001 -4.172407e+001  2.701379e+001  1.705645e+002 -7.449197e+000  6.897303e+001
5.3544375000e+009 -2.535888e+000 -4.980506e+000 -3.410082e+001 -4.386261e+001  2.701524e+001  1.708130e+002 -7.572151e+000  6.862548e+001
5.3545625000e+009 -2.452770e+000 -4.631213e+000 -3.482104e+001 -4.231674e+001  2.703378e+001  1.702192e+002 -7.510313e+000  6.905364e+001
5.3546875000e+009 -2.423399e+000 -5.101234e+000 -3.459714e+001 -4.227693e+001  2.697983e+001  1.694172e+002 -7.476582e+000  6.933545e+001
5.3548125000e+009 -2.407740e+000 -5.227181e+000 -3.477438e+001 -4.455708e+001  2.703720e+001  1.705905e+002 -7.706700e+000  6.845445e+001
5.3549375000e+009 -2.334972e+000 -4.927573e+000 -3.456378e+001 -4.552166e+001  2.697752e+001  1.695951e+002 -7.574331e+000  6.900596e+001
5.3550625000e+009 -2.366463e+000 -5.445467e+000 -3.385664e+001 -4.294442e+001  2.696122e+001  1.689995e+002 -7.492525e+000  6.984096e+001
5.3551875000e+009 -2.264986e+000 -5.640416e+000 -3.508372e+001 -4.219512e+001  2.696721e+001  1.691672e+002 -7.749402e+000  6.860613e+001
5.3553125000e+009 -2.221848e+000 -5.732339e+000 -3.484671e+001 -4.447062e+001  2.699525e+001  1.693998e+002 -7.818503e+000  6.920207e+001
5.3554375000e+009 -2.166328e+000 -5.477592e+000 -3.434888e+001 -4.431575e+001  2.694654e+001  1.685348e+002 -7.617454e+000  6.968794e+001
5.3555625000e+009 -2.161376e+000 -6.474155e+000 -3.463795e+001 -4.609196e+001  2.692723e+001  1.686347e+002 -7.758584e+000  6.879850e+001
5.3556875000e+009 -2.127990e+000 -5.532681e+000 -3.466104e+001 -4.531359e+001  2.695315e+001  1.686276e+002 -7.839800e+000  6.941591e+001
5.3558125000e+009 -2.045926e+000 -6.092483e+000 -3.388105e+001 -4.589287e+001  2.692272e+001  1.679582e+002 -7.738828e+000  7.000003e+001
5.3559375000e+009 -2.054696e+000 -6.466033e+000 -3.409763e+001 -4.430663e+001  2.688692e+001  1.679491e+002 -7.844445e+000  6.997161e+001
5.3560625000e+009 -1.970298e+000 -6.284804e+000 -3.450427e+001 -5.063515e+001  2.691613e+001  1.676253e+002 -7.806143e+000  6.952570e+001
5.3561875000e+009 -1.976794e+000 -6.210815e+000 -3.417520e+001 -4.541645e+001  2.693726e+001  1.667730e+002 -7.740559e+000  7.126373e+001
5.3563125000e+009 -1.927703e+000 -6.705193e+000 -3.409522e+001 -4.376986e+001  2.688775e+001  1.674754e+002 -7.902995e+000  7.039269e+001
5.3564375000e+009 -1.909562e+000 -6.273474e+000 -3.420023e+001 -4.256952e+001  2.688273e+001  1.671266e+002 -7.985982e+000  7.037959e+001
5.3565625000e+009 -1.875064e+000 -7.038565e+000 -3.445732e+001 -4.385356e+001  2.684016e+001  1.664845e+002 -7.976339e+000  7.048451e+001
5.3566875000e+009 -1.876472e+000 -7.046222e+000 -3.422194e+001 -4.498121e+001  2.681835e+001  1.663332e+002 -7.865764e+000  7.039264e+001
5.3568125000e+009 -1.822763e+000 -6.553951e+000 -3.425639e+001 -4.718184e+001  2.685699e+001  1.667504e+002 -8.183691e+000  7.044540e+001
5.3569375000e+009 -1.754574e+000 -7.585490e+000 -3.419303e+001 -4.912683e+001  2.683947e+001  1.659219e+002 -7.889980e+000  7.085149e+001
5.3570625000e+009 -1.680039e+000 -7.431416e+000 -3.434142e+001 -4.567286e+001  2.684839e+001  1.655939e+002 -7.916214e+000  7.144228e+001
5.3571875000e+009 -1.733177e+000 -6.991415e+000 -3.410523e+001 -4.682936e+001  2.674562e+001  1.657726e+002 -8.045131e+000  6.971275e+001
5.3573125000e+009 -1.627497e+000 -7.308440e+000 -3.404507e+001 -4.355350e+001  2.680987e+001  1.650744e+002 -8.047415e+000  7.139807e+001
5.3574375000e+009 -1.632254e+000 -7.467417e+000 -3.407751e+001 -4.445007e+001  2.678679e+001  1.649387e+002 -8.144012e+000  7.160138e+001
5.3575625000e+009 -1.573469e+000 -7.855410e+000 -3.326236e+001 -4.518213e+001  2.677254e+001  1.647381e+002 -7.986226e+000  7.174349e+001
5.3576875000e+009 -1.519866e+000 -7.835990e+000 -3.406961e+001 -4.747609e+001  2.677252e+001  1.646937e+002 -8.075020e+000  7.207395e+001
5.3578125000e+009 -1.543608e+000 -8.021396e+000 -3.343586e+001 -4.735147e+001  2.671779e+001  1.647550e+002 -8.067328e+000  7.073087e+001
5.3579375000e+009 -1.500431e+000 -7.346932e+000 -3.413235e+001 -4.365885e+001  2.673702e+001  1.644766e+002 -8.161234e+000  7.074982e+001
5.3580625000e+009 -1.447340e+000 -8.092722e+000 -3.391634e+001 -5.214605e+001  2.672601e+001  1.640236e+002 -8.077732e+000  7.114201e+001
5.3581875000e+009 -1.495659e+000 -8.449402e+000 -3.434167e+001 -4.551637e+001  2.670652e+001  1.638294e+002 -8.182042e+000  7.117678e+001
5.3583125000e+009 -1.411580e+000 -8.256691e+000 -3.411744e+001 -4.533330e+001  2.669459e+001  1.634580e+002 -8.218255e+000  7.193668e+001
5.3584375000e+009 -1.372696e+000 -8.264469e+000 -3.381876e+001 -4.706548e+001  2.670613e+001  1.634589e+002 -8.180846e+000  7.252030e+001
5.3585625000e+009 -1.369122e+000 -8.348719e+000 -3.390191e+001 -4.943000e+001  2.669408e+001  1.632525e+002 -8.060649e+000  7.137750e+001
5.3586875000e+009 -1.355766e+000 -8.746621e+000 -3.401489e+001 -4.582539e+001  2.667447e+001  1.629851e+002 -8.299779e+000  7.267837e+001
5.3588125000e+009 -1.314609e+000 -8.486510e+000 -3.401556e+001 -4.440164e+001  2.669541e+001  1.628868e+002 -8.212450e+000  7.376236e+001
5.3589375000e+009 -1.238403e+000 -8.998036e+000 -3.374013e+001 -4.721018e+001  2.665747e+001  1.624458e+002 -8.225510e+000  7.295620e+001
5.3590625000e+009 -1.215484e+000 -8.599400e+000 -3.428415e+001 -4.524508e+001  2.665649e+001  1.622459e+002 -8.408937e+000  7.252233e+001
5.3591875000e+009 -1.206976e+000 -8.718695e+000 -3.402651e+001 -4.751785e+001  2.662749e+001  1.620492e+002 -8.278778e+000  7.310237e+001
5.3593125000e+009 -1.121924e+000 -9.206829e+000 -3.376327e+001 -4.884369e+001  2.658646e+001  1.619603e+002 -8.275709e+000  7.274206e+001
5.3594375000e+009 -1.153305e+000 -8.931140e+000 -3.384631e+001 -4.669995e+001  2.661515e+001  1.617529e+002 -8.272835e+000  7.266796e+001
5.3595625000e+009 -1.148973e+000 -9.263145e+000 -3.419171e+001 -5.328664e+001  2.658642e+001  1.614309e+002 -8.324143e+000  7.302464e+001
5.3596875000e+009 -1.112496e+000 -9.288107e+000 -3.402582e+001 -5.091004e+001  2.655731e+001  1.612893e+002 -8.373109e+000  7.238753e+001
5.3598125000e+009 -1.137031e+000 -9.119161e+000 -3.449028e+001 -4.444186e+001  2.657725e+001  1.609056e+002 -8.380801e+000  7.292673e+001
5.3599375000e+009 -1.070226e+000 -9.439982e+000 -3.407101e+001 -4.589806e+001  2.655086e+001  1.608983e+002 -8.411094e+000  7.368224e+001
5.3600625000e+009 -9.647613e-001 -9.781363e+000 -3.384358e+001 -4.698279e+001  2.659132e+001  1.606060e+002 -8.274078e+000  7.415250e+001
5.3601875000e+009 -1.019051e+000 -9.641244e+000 -3.394122e+001 -4.904804e+001  2.653775e+001  1.601323e+002 -8.371575e+000  7.265016e+001
5.3603125000e+009 -9.172207e-001 -1.014124e+001 -3.362560e+001 -5.318619e+001  2.657165e+001  1.603957e+002 -8.327497e+000  7.301366e+001
5.3604375000e+009 -9.183294e-001 -9.579348e+000 -3.398119e+001 -4.742628e+001  2.655524e+001  1.601524e+002 -8.298018e+000  7.500762e+001
5.3605625000e+009 -9.838328e-001 -9.956532e+000 -3.424575e+001 -5.144842e+001  2.656638e+001  1.598605e+002 -8.320107e+000  7.388485e+001
5.3606875000e+009 -9.115847e-001 -9.700119e+000 -3.398088e+001 -4.944147e+001  2.649744e+001  1.596461e+002 -8.420863e+000  7.406034e+001
5.3608125000e+009 -8.621180e-001 -9.820339e+000 -3.413176e+001 -4.788131e+001  2.654921e+001  1.593110e+002 -8.441866e+000  7.425916e+001
5.3609375000e+009 -8.598679e-001 -9.863800e+000 -3.331541e+001 -5.257460e+001  2.656194e+001  1.593110e+002 -8.148247e+000  7.393488e+001
5.3610625000e+009 -8.256233e-001 -1.005056e+001 -3.415894e+001 -5.152586e+001  2.645398e+001  1.592997e+002 -8.568295e+000  7.485101e+001
5.3611875000e+009 -7.738469e-001 -1.007639e+001 -3.365413e+001 -4.784133e+001  2.653979e+001  1.589006e+002 -8.319073e+000  7.493133e+001
5.3613125000e+009 -7.831216e-001 -1.035447e+001 -3.409655e+001 -5.298551e+001  2.651690e+001  1.585368e+002 -8.353213e+000  7.380557e+001
5.3614375000e+009 -7.343745e-001 -1.044369e+001 -3.364666e+001 -5.254625e+001  2.645544e+001  1.585157e+002 -8.410601e+000  7.533900e+001
5.3615625000e+009 -7.073912e-001 -1.016434e+001 -3.404531e+001 -5.191917e+001  2.646769e+001  1.582861e+002 -8.396177e+000  7.483217e+001
5.3616875000e+009 -6.898146e-001 -1.048350e+001 -3.407426e+001 -5.303815e+001  2.645829e+001  1.580886e+002 -8.394317e+000  7.492779e+001
5.3618125000e+009 -6.619889e-001 -1.027897e+001 -3.360163e+001 -4.825984e+001  2.639719e+001  1.578419e+002 -8.492887e+000  7.667023e+001
5.3619375000e+009 -6.190633e-001 -1.045427e+001 -3.413936e+001 -5.037918e+001  2.653214e+001  1.576042e+002 -8.387132e+000  7.416143e+001
5.3620625000e+009 -6.296528e-001 -1.074168e+001 -3.357144e+001 -5.300251e+001  2.644014e+001  1.572777e+002 -8.355773e+000  7.490543e+001
5.3621875000e+009 -6.023197e-001 -1.052204e+001 -3.452047e+001 -5.401520e+001  2.637542e+001  1.572748e+002 -8.618709e+000  7.527280e+001
5.3623125000e+009 -5.489158e-001 -1.060737e+001 -3.408611e+001 -5.009031e+001  2.638414e+001  1.568237e+002 -8.507005e+000  7.586366e+001
5.3624375000e+009 -5.334108e-001 -1.071359e+001 -3.324394e+001 -4.869911e+001  2.638856e+001  1.566073e+002 -8.449693e+000  7.607066e+001
5.3625625000e+009 -5.020369e-001 -1.090169e+001 -3.355291e+001 -5.389585e+001  2.639781e+001  1.563204e+002 -8.444505e+000  7.563704e+001
5.3626875000e+009 -4.759760e-001 -1.067827e+001 -3.397623e+001 -5.159267e+001  2.635209e+001  1.565022e+002 -8.506132e+000  7.668781e+001
5.3628125000e+009 -4.640299e-001 -1.075998e+001 -3.341027e+001 -5.257689e+001  2.645319e+001  1.562720e+002 -8.203276e+000  7.578681e+001
5.3629375000e+009 -4.337237e-001 -1.091735e+001 -3.359735e+001 -5.499923e+001  2.633792e+001  1.563055e+002 -8.460827e+000  7.633422e+001
5.3630625000e+009 -3.959259e-001 -1.070820e+001 -3.387014e+001 -5.057082e+001  2.629500e+001  1.563329e+002 -8.490085e+000  7.758004e+001
5.3631875000e+009 -3.782126e-001 -1.099822e+001 -3.332912e+001 -5.324966e+001  2.643942e+001  1.555874e+002 -8.390043e+000  7.610505e+001
5.3633125000e+009 -3.703788e-001 -1.095746e+001 -3.391414e+001 -5.211143e+001  2.629181e+001  1.556382e+002 -8.607642e+000  7.765039e+001
5.3634375000e+009 -3.476360e-001 -1.089486e+001 -3.357983e+001 -5.406429e+001  2.631209e+001  1.553205e+002 -8.491822e+000  7.715400e+001
5.3635625000e+009 -3.256454e-001 -1.093795e+001 -3.330642e+001 -5.676320e+001  2.636411e+001  1.547310e+002 -8.488621e+000  7.659321e+001
5.3636875000e+009 -2.904349e-001 -1.107991e+001 -3.343587e+001 -5.256651e+001  2.624398e+001  1.551306e+002 -8.573110e+000  7.837868e+001
5.3638125000e+009 -2.837204e-001 -1.080843e+001 -3.355985e+001 -5.191573e+001  2.622873e+001  1.541702e+002 -8.793935e+000  7.764317e+001
5.3639375000e+009 -2.517604e-001 -1.109757e+001 -3.378219e+001 -5.373725e+001  2.645496e+001  1.549348e+002 -8.459645e+000  7.780934e+001
5.3640625000e+009 -2.248692e-001 -1.087940e+001 -3.379537e+001 -5.250661e+001  2.629319e+001  1.542201e+002 -8.724431e+000  7.854771e+001
5.3641875000e+009 -2.164728e-001 -1.089686e+001 -3.341181e+001 -5.405697e+001  2.632525e+001  1.543752e+002 -8.589106e+000  7.833735e+001
5.3643125000e+009 -1.770601e-001 -1.107314e+001 -3.368529e+001 -5.559182e+001  2.634285e+001  1.541405e+002 -8.603896e+000  7.819822e+001
5.3644375000e+009 -1.646056e-001 -1.106951e+001 -3.327923e+001 -5.714248e+001  2.633539e+001  1.539786e+002 -8.580437e+000  7.782552e+001
5.3645625000e+009 -1.605290e-001 -1.087818e+001 -3.343242e+001 -5.328091e+001  2.628995e+001  1.537274e+002 -8.669045e+000  7.932547e+001
5.3646875000e+009 -1.312121e-001 -1.112205e+001 -3.355420e+001 -5.344893e+001  2.652760e+001  1.534307e+002 -8.547049e+000  7.833881e+001
5.3648125000e+009 -8.916721e-002 -1.126552e+001 -3.353946e+001 -5.604446e+001  2.615221e+001  1.530303e+002 -8.829319e+000  7.970758e+001
5.3649375000e+009 -9.847170e-002 -1.108302e+001 -3.392007e+001 -5.337039e+001  2.611130e+001  1.530488e+002 -8.923024e+000  8.046981e+001
5.3650625000e+009 -1.679645e-002 -1.119708e+001 -3.317574e+001 -5.615069e+001  2.623047e+001  1.529355e+002 -8.708693e+000  7.962921e+001
5.3651875000e+009 -5.116656e-003 -1.119596e+001 -3.313668e+001 -5.387589e+001  2.616964e+001  1.524106e+002 -8.789198e+000  8.005758e+001
5.3653125000e+009 -2.647384e-002 -1.123060e+001 -3.369206e+001 -5.588741e+001  2.617383e+001  1.526414e+002 -8.823802e+000  8.022182e+001
5.3654375000e+009  1.237973e-002 -1.110755e+001 -3.301897e+001 -5.618334e+001  2.620982e+001  1.525103e+002 -8.706367e+000  8.052474e+001
5.3655625000e+009 -3.099923e-003 -1.127348e+001 -3.341592e+001 -5.724015e+001  2.614022e+001  1.520626e+002 -8.813706e+000  8.036337e+001
5.3656875000e+009  1.055397e-002 -1.127519e+001 -3.337270e+001 -5.310630e+001  2.622983e+001  1.518035e+002 -8.914723e+000  8.112888e+001
5.3658125000e+009  9.012413e-002 -1.152934e+001 -3.327922e+001 -5.512806e+001  2.616795e+001  1.520981e+002 -8.780497e+000  8.180221e+001
5.3659375000e+009  7.751480e-002 -1.138106e+001 -3.314238e+001 -5.990125e+001  2.621323e+001  1.517835e+002 -8.824337e+000  8.046368e+001
5.3660625000e+009  8.133222e-002 -1.130648e+001 -3.275753e+001 -5.598058e+001  2.624883e+001  1.516404e+002 -8.716028e+000  8.144061e+001
5.3661875000e+009  1.537747e-001 -1.150580e+001 -3.282000e+001 -5.460443e+001  2.626831e+001  1.519338e+002 -8.711035e+000  8.197018e+001
5.3663125000e+009  1.440236e-001 -1.145344e+001 -3.319713e+001 -5.564251e+001  2.616726e+001  1.506577e+002 -8.898438e+000  8.202527e+001
5.3664375000e+009  1.031316e-001 -1.150175e+001 -3.322372e+001 -5.686306e+001  2.621877e+001  1.511084e+002 -8.878906e+000  8.171268e+001
5.3665625000e+009  1.525209e-001 -1.175922e+001 -3.328519e+001 -5.742241e+001  2.621327e+001  1.511500e+002 -8.849990e+000  8.247186e+001
5.3666875000e+009  2.550583e-001 -1.169197e+001 -3.340627e+001 -5.555576e+001  2.620603e+001  1.506473e+002 -8.928121e+000  8.311022e+001
5.3668125000e+009  1.447774e-001 -1.159172e+001 -3.312135e+001 -5.633266e+001  2.622011e+001  1.505946e+002 -8.951263e+000  8.256580e+001
5.3669375000e+009  2.909784e-001 -1.159771e+001 -3.335547e+001 -5.579193e+001  2.629974e+001  1.505750e+002 -8.851411e+000  8.298744e+001
5.3670625000e+009  2.378536e-001 -1.166112e+001 -3.310283e+001 -5.686823e+001  2.623811e+001  1.500353e+002 -8.919752e+000  8.283574e+001
5.3671875000e+009  2.235419e-001 -1.164870e+001 -3.285721e+001 -5.415640e+001  2.620322e+001  1.504705e+002 -8.832489e+000  8.385036e+001
5.3673125000e+009  2.837037e-001 -1.192006e+001 -3.313089e+001 -5.788424e+001  2.618810e+001  1.501347e+002 -8.915755e+000  8.384022e+001
5.3674375000e+009  2.823068e-001 -1.175641e+001 -3.322615e+001 -5.853780e+001  2.609406e+001  1.502393e+002 -8.969804e+000  8.445055e+001
5.3675625000e+009  2.761121e-001 -1.199938e+001 -3.342024e+001 -5.877058e+001  2.607414e+001  1.491886e+002 -9.060997e+000  8.416348e+001
5.3676875000e+009  4.136712e-001 -1.154282e+001 -3.320959e+001 -5.600463e+001  2.618574e+001  1.494229e+002 -8.976637e+000  8.475382e+001
5.3678125000e+009  4.008046e-001 -1.181889e+001 -3.326386e+001 -5.964282e+001  2.617294e+001  1.499390e+002 -8.884874e+000  8.453680e+001
5.3679375000e+009  3.402562e-001 -1.264145e+001 -3.341190e+001 -5.707869e+001  2.605524e+001  1.483859e+002 -9.114595e+000  8.472171e+001
5.3680625000e+009  4.303802e-001 -1.232728e+001 -3.328757e+001 -5.991166e+001  2.613455e+001  1.489963e+002 -8.983090e+000  8.511669e+001
5.3681875000e+009  4.758405e-001 -1.218472e+001 -3.309490e+001 -5.596077e+001  2.605169e+001  1.484088e+002 -8.984458e+000  8.551243e+001
5.3683125000e+009  3.915792e-001 -1.215179e+001 -3.320254e+001 -5.965453e+001  2.608477e+001  1.482949e+002 -9.086708e+000  8.509716e+001
5.3684375000e+009  4.641083e-001 -1.223254e+001 -3.289040e+001 -6.163349e+001  2.611480e+001  1.487714e+002 -8.975901e+000  8.548140e+001
5.3685625000e+009  4.904093e-001 -1.261644e+001 -3.306771e+001 -6.288299e+001  2.605311e+001  1.480431e+002 -9.127571e+000  8.511813e+001
5.3686875000e+009  4.754402e-001 -1.249982e+001 -3.315280e+001 -5.996679e+001  2.608714e+001  1.476673e+002 -9.070874e+000  8.601000e+001
5.3688125000e+009  4.612888e-001 -1.243035e+001 -3.321654e+001 -6.100718e+001  2.605951e+001  1.480702e+002 -9.062708e+000  8.636134e+001
5.3689375000e+009  6.720669e-001 -1.162855e+001 -3.243175e+001 -5.853251e+001  2.607475e+001  1.481132e+002 -8.969504e+000  8.683331e+001
5.3690625000e+009  5.271652e-001 -1.246816e+001 -3.355118e+001 -5.576809e+001  2.601027e+001  1.470136e+002 -9.074166e+000  8.765709e+001
5.3691875000e+009  5.977082e-001 -1.249855e+001 -3.301203e+001 -5.852801e+001  2.589140e+001  1.480577e+002 -9.076508e+000  8.799799e+001
5.3693125000e+009  5.603967e-001 -1.269993e+001 -3.290324e+001 -6.058081e+001  2.607859e+001  1.464535e+002 -9.072780e+000  8.686217e+001
5.3694375000e+009  4.783431e-001 -1.264355e+001 -3.300640e+001 -5.725665e+001  2.597555e+001  1.466976e+002 -9.113651e+000  8.799355e+001
5.3695625000e+009  5.761631e-001 -1.230741e+001 -3.349757e+001 -5.959630e+001  2.596447e+001  1.476877e+002 -9.185156e+000  8.883694e+001
5.3696875000e+009  6.475899e-001 -1.244798e+001 -3.293639e+001 -6.251222e+001  2.602654e+001  1.466115e+002 -9.113919e+000  8.781152e+001
5.3698125000e+009  6.795084e-001 -1.286313e+001 -3.268060e+001 -6.075044e+001  2.589865e+001  1.468727e+002 -9.060544e+000  8.834222e+001
5.3699375000e+009  6.834091e-001 -1.300919e+001 -3.324485e+001 -5.913674e+001  2.595481e+001  1.462936e+002 -9.151465e+000  8.903864e+001
5.3700625000e+009  7.247862e-001 -1.271479e+001 -3.300481e+001 -5.808727e+001  2.593206e+001  1.461862e+002 -9.114080e+000  8.924937e+001
5.3701875000e+009  6.694372e-001 -1.361632e+001 -3.308285e+001 -5.921898e+001  2.588497e+001  1.458099e+002 -9.185537e+000  8.979525e+001
5.3703125000e+009  7.607481e-001 -1.287306e+001 -3.335091e+001 -5.895007e+001  2.604149e+001  1.455632e+002 -9.118599e+000  8.991122e+001
5.3704375000e+009  7.515628e-001 -1.315797e+001 -3.311407e+001 -6.096592e+001  2.597926e+001  1.459833e+002 -9.188142e+000  8.949929e+001
5.3705625000e+009  6.537461e-001 -1.403795e+001 -3.302441e+001 -6.354903e+001  2.593071e+001  1.454615e+002 -9.127152e+000  8.944181e+001
5.3706875000e+009  6.714781e-001 -1.342319e+001 -3.282595e+001 -6.435987e+001  2.594878e+001  1.451105e+002 -9.163884e+000  8.976232e+001
5.3708125000e+009  7.090966e-001 -1.305272e+001 -3.310406e+001 -6.034704e+001  2.593071e+001  1.456880e+002 -9.148587e+000  9.039537e+001
5.3709375000e+009  7.484331e-001 -1.301687e+001 -3.332592e+001 -6.065191e+001  2.591654e+001  1.452125e+002 -9.149304e+000  9.084872e+001
5.3710625000e+009  8.392622e-001 -1.354939e+001 -3.267695e+001 -6.194543e+001  2.588791e+001  1.446933e+002 -9.095964e+000  9.030164e+001
5.3711875000e+009  8.815856e-001 -1.277115e+001 -3.348051e+001 -6.496846e+001  2.595771e+001  1.442701e+002 -9.206452e+000  9.090545e+001
5.3713125000e+009  8.192561e-001 -1.329225e+001 -3.320022e+001 -6.007837e+001  2.582100e+001  1.442489e+002 -9.161569e+000  9.169415e+001
5.3714375000e+009  8.186113e-001 -1.385750e+001 -3.274098e+001 -6.209489e+001  2.587540e+001  1.443682e+002 -9.178244e+000  9.145127e+001
5.3715625000e+009  9.063608e-001 -1.371765e+001 -3.266722e+001 -6.342683e+001  2.592449e+001  1.441081e+002 -9.107263e+000  9.115758e+001
5.3716875000e+009  9.261648e-001 -1.432358e+001 -3.260047e+001 -6.323326e+001  2.586348e+001  1.435812e+002 -9.159658e+000  9.146337e+001
5.3718125000e+009  8.747911e-001 -1.496162e+001 -3.281013e+001 -6.649013e+001  2.579144e+001  1.437374e+002 -9.176888e+000  9.113531e+001
5.3719375000e+009  8.378162e-001 -1.337003e+001 -3.334064e+001 -6.756609e+001  2.579012e+001  1.435283e+002 -9.305555e+000  9.226485e+001
5.3720625000e+009  8.853505e-001 -1.350827e+001 -3.324214e+001 -6.060240e+001  2.586786e+001  1.430169e+002 -9.137012e+000  9.313996e+001
5.3721875000e+009  8.877363e-001 -1.402464e+001 -3.284682e+001 -6.346222e+001  2.576189e+001  1.431942e+002 -9.159920e+000  9.277937e+001
5.3723125000e+009  8.962046e-001 -1.311730e+001 -3.313778e+001 -6.204319e+001  2.579921e+001  1.436427e+002 -9.180670e+000  9.354845e+001
5.3724375000e+009  1.083040e+000 -1.407689e+001 -3.255849e+001 -6.641316e+001  2.586193e+001  1.422647e+002 -9.123565e+000  9.247742e+001
5.3725625000e+009  9.731547e-001 -1.447381e+001 -3.219436e+001 -6.696928e+001  2.576612e+001  1.431969e+002 -9.212487e+000  9.247713e+001
5.3726875000e+009  9.049541e-001 -1.380750e+001 -3.305435e+001 -6.501637e+001  2.582068e+001  1.428492e+002 -9.208799e+000  9.375281e+001
5.3728125000e+009  9.559244e-001 -1.437828e+001 -3.278664e+001 -6.476701e+001  2.574256e+001  1.424407e+002 -9.180227e+000  9.356860e+001
5.3729375000e+009  9.887184e-001 -1.350354e+001 -3.267103e+001 -6.433923e+001  2.571866e+001  1.426108e+002 -9.198841e+000  9.400726e+001
5.3730625000e+009  8.234506e-001 -1.406444e+001 -3.286340e+001 -6.489150e+001  2.571666e+001  1.421542e+002 -9.200535e+000  9.484782e+001
5.3731875000e+009  1.021980e+000 -1.533126e+001 -3.270859e+001 -6.843917e+001  2.566866e+001  1.418846e+002 -9.312351e+000  9.381525e+001
5.3733125000e+009  1.052497e+000 -1.410969e+001 -3.281901e+001 -6.593301e+001  2.568293e+001  1.418680e+002 -9.282401e+000  9.458475e+001
5.3734375000e+009  9.960112e-001 -1.378084e+001 -3.321639e+001 -6.199555e+001  2.572232e+001  1.416601e+002 -9.138149e+000  9.582114e+001
5.3735625000e+009  9.711832e-001 -1.483708e+001 -3.362337e+001 -6.656752e+001  2.566046e+001  1.416564e+002 -9.348400e+000  9.638301e+001
5.3736875000e+009  9.160233e-001 -1.434737e+001 -3.255301e+001 -6.776352e+001  2.561074e+001  1.414839e+002 -9.264894e+000  9.484244e+001
5.3738125000e+009  1.119007e+000 -1.487907e+001 -3.292295e+001 -6.440283e+001  2.567836e+001  1.409091e+002 -9.194863e+000  9.638393e+001
5.3739375000e+009  1.103621e+000 -1.494257e+001 -3.201284e+001 -6.432899e+001  2.570331e+001  1.410050e+002 -9.050521e+000  9.571304e+001
5.3740625000e+009  1.055117e+000 -1.507557e+001 -3.276830e+001 -6.994484e+001  2.558670e+001  1.413492e+002 -9.409683e+000  9.551114e+001
5.3741875000e+009  1.004135e+000 -1.447363e+001 -3.311110e+001 -6.700223e+001  2.562827e+001  1.411479e+002 -9.239735e+000  9.658537e+001
5.3743125000e+009  1.074401e+000 -1.533694e+001 -3.323003e+001 -7.073969e+001  2.562640e+001  1.406181e+002 -9.330995e+000  9.704481e+001
5.3744375000e+009  1.154304e+000 -1.511936e+001 -3.288333e+001 -6.353480e+001  2.560416e+001  1.405811e+002 -9.146800e+000  9.769816e+001
5.3745625000e+009  1.044380e+000 -1.452016e+001 -3.267568e+001 -6.600260e+001  2.560788e+001  1.403580e+002 -9.164207e+000  9.794559e+001
5.3746875000e+009  1.078423e+000 -1.459008e+001 -3.253790e+001 -6.455872e+001  2.566017e+001  1.403479e+002 -9.095231e+000  9.773236e+001
5.3748125000e+009  1.216723e+000 -1.533190e+001 -3.250207e+001 -6.528484e+001  2.553824e+001  1.402382e+002 -9.189145e+000  9.766453e+001
5.3749375000e+009  1.115702e+000 -1.444491e+001 -3.270868e+001 -6.647580e+001  2.556430e+001  1.402738e+002 -9.199776e+000  9.831557e+001
5.3750625000e+009  1.167151e+000 -1.538783e+001 -3.273881e+001 -7.130904e+001  2.554217e+001  1.399908e+002 -9.311984e+000  9.798583e+001
5.3751875000e+009  1.180815e+000 -1.479797e+001 -3.293987e+001 -6.618595e+001  2.553523e+001  1.395333e+002 -9.269522e+000  9.904407e+001
5.3753125000e+009  1.115329e+000 -1.471436e+001 -3.303469e+001 -6.736674e+001  2.556002e+001  1.398803e+002 -9.190682e+000  9.960003e+001
5.3754375000e+009  1.231893e+000 -1.581562e+001 -3.246582e+001 -6.952642e+001  2.552099e+001  1.393809e+002 -9.283220e+000  9.888422e+001
5.3755625000e+009  1.319202e+000 -1.605550e+001 -3.243990e+001 -6.780788e+001  2.549316e+001  1.391060e+002 -9.221321e+000  9.885373e+001
5.3756875000e+009  1.161905e+000 -1.530486e+001 -3.231346e+001 -6.651907e+001  2.546294e+001  1.389837e+002 -9.264113e+000  9.936388e+001
5.3758125000e+009  1.336210e+000 -1.599204e+001 -3.273215e+001 -6.692032e+001  2.549328e+001  1.388555e+002 -9.232595e+000  1.006049e+002
5.3759375000e+009  1.289706e+000 -1.696240e+001 -3.278748e+001 -7.044281e+001  2.541595e+001  1.386882e+002 -9.440886e+000  1.003804e+002
5.3760625000e+009  1.203864e+000 -1.596196e+001 -3.254622e+001 -6.921853e+001  2.540668e+001  1.389460e+002 -9.441387e+000  1.008829e+002
5.3761875000e+009  1.192078e+000 -1.668079e+001 -3.297068e+001 -7.058023e+001  2.539031e+001  1.385838e+002 -9.475375e+000  1.011743e+002
5.3763125000e+009  1.184604e+000 -1.728666e+001 -3.277786e+001 -7.500948e+001  2.534843e+001  1.380229e+002 -9.691597e+000  1.010079e+002
5.3764375000e+009  1.159031e+000 -1.710813e+001 -3.270039e+001 -7.512808e+001  2.533047e+001  1.380763e+002 -9.696952e+000  1.007303e+002
5.3765625000e+009  1.297044e+000 -1.728685e+001 -3.229758e+001 -6.927676e+001  2.530099e+001  1.376923e+002 -9.560401e+000  1.020015e+002
5.3766875000e+009  1.283393e+000 -1.655844e+001 -3.254206e+001 -6.925558e+001  2.536566e+001  1.375228e+002 -9.539270e+000  1.011400e+002
5.3768125000e+009  1.164291e+000 -1.765162e+001 -3.292554e+001 -7.278195e+001  2.526039e+001  1.376936e+002 -9.641022e+000  1.031257e+002
5.3769375000e+009  1.290949e+000 -1.766313e+001 -3.210047e+001 -7.125262e+001  2.525272e+001  1.373725e+002 -9.632844e+000  1.021137e+002
5.3770625000e+009  1.204852e+000 -1.878176e+001 -3.215086e+001 -7.504680e+001  2.523116e+001  1.371858e+002 -9.689494e+000  1.014716e+002
5.3771875000e+009  1.060795e+000 -1.770187e+001 -3.270962e+001 -7.427140e+001  2.522730e+001  1.372684e+002 -9.744900e+000  1.029540e+002
5.3773125000e+009  1.284590e+000 -1.831641e+001 -3.272528e+001 -6.861803e+001  2.520127e+001  1.370699e+002 -9.604318e+000  1.035353e+002
5.3774375000e+009  1.262152e+000 -1.856318e+001 -3.213160e+001 -7.665123e+001  2.517221e+001  1.366336e+002 -9.846364e+000  1.027509e+002
5.3775625000e+009  1.249156e+000 -1.788353e+001 -3.259950e+001 -7.614828e+001  2.515018e+001  1.366113e+002 -9.844560e+000  1.041050e+002
5.3776875000e+009  1.335376e+000 -1.876334e+001 -3.208260e+001 -7.713500e+001  2.513470e+001  1.364729e+002 -9.919992e+000  1.035078e+002
5.3778125000e+009  1.283151e+000 -1.916839e+001 -3.274182e+001 -7.511388e+001  2.514895e+001  1.361443e+002 -9.904214e+000  1.043864e+002
5.3779375000e+009  1.183000e+000 -1.877350e+001 -3.264437e+001 -7.413912e+001  2.511101e+001  1.361331e+002 -9.886907e+000  1.043415e+002
5.3780625000e+009  1.239642e+000 -1.930216e+001 -3.231888e+001 -7.472884e+001  2.503966e+001  1.359396e+002 -9.999406e+000  1.052478e+002
5.3781875000e+009  1.327744e+000 -1.924091e+001 -3.278705e+001 -7.607053e+001  2.505779e+001  1.360172e+002 -9.921094e+000  1.053909e+002
5.3783125000e+009  1.176781e+000 -1.914976e+001 -3.286732e+001 -7.230941e+001  2.503668e+001  1.356217e+002 -9.925099e+000  1.060492e+002
5.3784375000e+009  1.390679e+000 -1.997525e+001 -3.238219e+001 -7.036615e+001  2.494826e+001  1.352117e+002 -9.884665e+000  1.067897e+002
5.3785625000e+009  1.331155e+000 -1.964380e+001 -3.254635e+001 -7.690137e+001  2.505463e+001  1.353546e+002 -1.004491e+001  1.051725e+002
5.3786875000e+009  1.147492e+000 -2.022400e+001 -3.247993e+001 -7.463998e+001  2.495055e+001  1.353049e+002 -1.006514e+001  1.065605e+002
5.3788125000e+009  1.256470e+000 -2.029277e+001 -3.214363e+001 -7.662941e+001  2.488288e+001  1.350024e+002 -1.013634e+001  1.068380e+002
5.3789375000e+009  1.311650e+000 -2.027022e+001 -3.320904e+001 -7.457042e+001  2.491683e+001  1.346129e+002 -1.010945e+001  1.078124e+002
5.3790625000e+009  1.141013e+000 -2.095741e+001 -3.229692e+001 -7.920912e+001  2.483809e+001  1.348182e+002 -1.025763e+001  1.074004e+002
5.3791875000e+009  1.348567e+000 -2.027103e+001 -3.265463e+001 -7.671217e+001  2.480990e+001  1.345292e+002 -1.019911e+001  1.088565e+002
5.3793125000e+009  1.323491e+000 -2.114935e+001 -3.223296e+001 -7.556309e+001  2.488433e+001  1.346182e+002 -1.006248e+001  1.074237e+002
5.3794375000e+009  1.339265e+000 -2.135954e+001 -3.264644e+001 -7.913228e+001  2.480672e+001  1.341552e+002 -1.028310e+001  1.087475e+002
5.3795625000e+009  1.396705e+000 -2.150924e+001 -3.253334e+001 -7.486683e+001  2.482222e+001  1.339104e+002 -1.021107e+001  1.087824e+002
5.3796875000e+009  1.497779e+000 -2.124856e+001 -3.252509e+001 -7.619409e+001  2.479333e+001  1.338401e+002 -1.019330e+001  1.090751e+002
5.3798125000e+009  1.348264e+000 -2.145493e+001 -3.301809e+001 -7.924985e+001  2.476175e+001  1.331889e+002 -1.049572e+001  1.101494e+002
5.3799375000e+009  1.393939e+000 -2.149707e+001 -3.224262e+001 -7.719866e+001  2.464795e+001  1.334169e+002 -1.041291e+001  1.100285e+002
5.3800625000e+009  1.385008e+000 -2.166935e+001 -3.279318e+001 -7.730078e+001  2.475868e+001  1.329972e+002 -1.046871e+001  1.103007e+002
5.3801875000e+009  1.323313e+000 -2.242606e+001 -3.227281e+001 -8.234222e+001  2.467913e+001  1.332052e+002 -1.056037e+001  1.101480e+002
5.3803125000e+009  1.415865e+000 -2.213401e+001 -3.252508e+001 -8.087950e+001  2.466132e+001  1.333407e+002 -1.047308e+001  1.104179e+002
5.3804375000e+009  1.396522e+000 -2.220044e+001 -3.208296e+001 -7.719819e+001  2.472907e+001  1.330473e+002 -1.035626e+001  1.095739e+002
5.3805625000e+009  1.333910e+000 -2.291218e+001 -3.234269e+001 -7.597800e+001  2.471250e+001  1.331093e+002 -1.031532e+001  1.097374e+002
5.3806875000e+009  1.409955e+000 -2.304077e+001 -3.253135e+001 -8.129824e+001  2.462046e+001  1.322537e+002 -1.066036e+001  1.115898e+002
5.3808125000e+009  1.321734e+000 -2.296201e+001 -3.222884e+001 -8.000771e+001  2.471127e+001  1.331729e+002 -1.037465e+001  1.101555e+002
5.3809375000e+009  1.336239e+000 -2.407001e+001 -3.214051e+001 -7.985500e+001  2.457690e+001  1.321065e+002 -1.062647e+001  1.112954e+002
5.3810625000e+009  1.410253e+000 -2.332238e+001 -3.255226e+001 -8.026075e+001  2.456020e+001  1.323037e+002 -1.057771e+001  1.121033e+002
5.3811875000e+009  1.442373e+000 -2.308528e+001 -3.213724e+001 -8.463153e+001  2.457229e+001  1.320367e+002 -1.078270e+001  1.121565e+002
5.3813125000e+009  1.320208e+000 -2.452579e+001 -3.227185e+001 -8.463097e+001  2.463108e+001  1.328372e+002 -1.061762e+001  1.110393e+002
5.3814375000e+009  1.401174e+000 -2.393966e+001 -3.246854e+001 -8.456990e+001  2.443350e+001  1.317226e+002 -1.083028e+001  1.136335e+002
5.3815625000e+009  1.435983e+000 -2.440812e+001 -3.168868e+001 -8.123994e+001  2.448977e+001  1.319521e+002 -1.064319e+001  1.114210e+002
5.3816875000e+009  1.499426e+000 -2.426083e+001 -3.255653e+001 -7.926880e+001  2.444897e+001  1.320398e+002 -1.049311e+001  1.133143e+002
5.3818125000e+009  1.393574e+000 -2.416262e+001 -3.243968e+001 -8.337038e+001  2.434602e+001  1.313307e+002 -1.084724e+001  1.143920e+002
5.3819375000e+009  1.515463e+000 -2.379900e+001 -3.211692e+001 -8.303600e+001  2.435650e+001  1.311322e+002 -1.081587e+001  1.145068e+002
5.3820625000e+009  1.405774e+000 -2.510144e+001 -3.227079e+001 -8.377695e+001  2.440370e+001  1.313394e+002 -1.083587e+001  1.141246e+002
5.3821875000e+009  1.496166e+000 -2.434851e+001 -3.229882e+001 -8.320366e+001  2.434902e+001  1.309731e+002 -1.087541e+001  1.144725e+002
5.3823125000e+009  1.485068e+000 -2.477118e+001 -3.246568e+001 -8.535504e+001  2.437264e+001  1.306786e+002 -1.100414e+001  1.151249e+002
5.3824375000e+009  1.385078e+000 -2.569145e+001 -3.201117e+001 -8.330658e+001  2.433814e+001  1.306217e+002 -1.095706e+001  1.142730e+002
5.3825625000e+009  1.458842e+000 -2.547483e+001 -3.222904e+001 -8.788614e+001  2.426170e+001  1.303275e+002 -1.112419e+001  1.157472e+002
5.3826875000e+009  1.477624e+000 -2.521208e+001 -3.209303e+001 -8.563697e+001  2.433162e+001  1.310770e+002 -1.091359e+001  1.148039e+002
5.3828125000e+009  1.483993e+000 -2.555449e+001 -3.171283e+001 -8.493639e+001  2.428055e+001  1.305334e+002 -1.103886e+001  1.149383e+002
5.3829375000e+009  1.507846e+000 -2.571704e+001 -3.155459e+001 -8.470486e+001  2.425054e+001  1.295887e+002 -1.119280e+001  1.147508e+002
5.3830625000e+009  1.517181e+000 -2.553561e+001 -3.198850e+001 -8.501085e+001  2.419523e+001  1.298590e+002 -1.111733e+001  1.161154e+002
5.3831875000e+009  1.523365e+000 -2.599025e+001 -3.207549e+001 -8.812401e+001  2.421883e+001  1.302590e+002 -1.112177e+001  1.163389e+002
5.3833125000e+009  1.567279e+000 -2.592391e+001 -3.216226e+001 -8.470395e+001  2.413243e+001  1.294565e+002 -1.117775e+001  1.170919e+002
5.3834375000e+009  1.582410e+000 -2.613480e+001 -3.170133e+001 -8.089135e+001  2.404173e+001  1.294619e+002 -1.100945e+001  1.168621e+002
5.3835625000e+009  1.557168e+000 -2.612275e+001 -3.208829e+001 -8.571053e+001  2.419905e+001  1.298379e+002 -1.113610e+001  1.166078e+002
5.3836875000e+009  1.495640e+000 -2.646175e+001 -3.231608e+001 -8.892564e+001  2.404962e+001  1.285788e+002 -1.140664e+001  1.193014e+002
5.3838125000e+009  1.546569e+000 -2.601133e+001 -3.186508e+001 -8.613196e+001  2.408723e+001  1.288499e+002 -1.129980e+001  1.178587e+002
5.3839375000e+009  1.502375e+000 -2.691103e+001 -3.243099e+001 -9.251337e+001  2.406141e+001  1.297673e+002 -1.131090e+001  1.191796e+002
5.3840625000e+009  1.556165e+000 -2.659475e+001 -3.223238e+001 -8.676641e+001  2.407386e+001  1.288605e+002 -1.132782e+001  1.182344e+002
5.3841875000e+009  1.580513e+000 -2.691241e+001 -3.191772e+001 -8.629620e+001  2.392192e+001  1.290634e+002 -1.118417e+001  1.189927e+002
5.3843125000e+009  1.652371e+000 -2.690937e+001 -3.226751e+001 -8.790913e+001  2.393805e+001  1.284325e+002 -1.131208e+001  1.197925e+002
5.3844375000e+009  1.593543e+000 -2.702402e+001 -3.246987e+001 -8.842171e+001  2.399886e+001  1.286724e+002 -1.132466e+001  1.197014e+002
5.3845625000e+009  1.617453e+000 -2.719644e+001 -3.201724e+001 -8.680307e+001  2.393262e+001  1.286010e+002 -1.132371e+001  1.197706e+002
5.3846875000e+009  1.653950e+000 -2.760427e+001 -3.128349e+001 -9.116007e+001  2.392531e+001  1.283859e+002 -1.161849e+001  1.192727e+002
5.3848125000e+009  1.630177e+000 -2.693291e+001 -3.197791e+001 -8.685120e+001  2.394836e+001  1.285771e+002 -1.134393e+001  1.196756e+002
5.3849375000e+009  1.646924e+000 -2.737991e+001 -3.237718e+001 -8.658527e+001  2.387848e+001  1.287994e+002 -1.118680e+001  1.206569e+002
5.3850625000e+009  1.735658e+000 -2.759114e+001 -3.173387e+001 -8.666097e+001  2.383821e+001  1.280304e+002 -1.140442e+001  1.203636e+002
5.3851875000e+009  1.629195e+000 -2.783991e+001 -3.172523e+001 -9.071770e+001  2.382081e+001  1.270269e+002 -1.176285e+001  1.215699e+002
5.3853125000e+009  1.752489e+000 -2.775045e+001 -3.174485e+001 -8.975982e+001  2.384972e+001  1.272265e+002 -1.164062e+001  1.210795e+002
5.3854375000e+009  1.677816e+000 -2.805129e+001 -3.164008e+001 -8.782312e+001  2.382417e+001  1.270451e+002 -1.166738e+001  1.207493e+002
5.3855625000e+009  1.746433e+000 -2.822037e+001 -3.172423e+001 -8.594461e+001  2.376813e+001  1.279468e+002 -1.139946e+001  1.210003e+002
5.3856875000e+009  1.702052e+000 -2.785581e+001 -3.204891e+001 -8.805959e+001  2.372144e+001  1.272548e+002 -1.144447e+001  1.223350e+002
5.3858125000e+009  1.713135e+000 -2.787703e+001 -3.161206e+001 -9.098563e+001  2.366436e+001  1.276723e+002 -1.153597e+001  1.225670e+002
5.3859375000e+009  1.692775e+000 -2.843308e+001 -3.175295e+001 -9.049095e+001  2.364212e+001  1.262943e+002 -1.175450e+001  1.236279e+002
5.3860625000e+009  1.794704e+000 -2.813987e+001 -3.179548e+001 -8.564753e+001  2.368728e+001  1.273145e+002 -1.146177e+001  1.221407e+002
5.3861875000e+009  1.850515e+000 -2.900250e+001 -3.173058e+001 -8.686843e+001  2.362842e+001  1.270675e+002 -1.148870e+001  1.224056e+002
5.3863125000e+009  1.806551e+000 -2.821366e+001 -3.209882e+001 -9.208591e+001  2.366855e+001  1.255300e+002 -1.191119e+001  1.248731e+002
5.3864375000e+009  1.768886e+000 -2.892547e+001 -3.230625e+001 -9.157905e+001  2.359340e+001  1.264729e+002 -1.164500e+001  1.245822e+002
5.3865625000e+009  1.833618e+000 -2.872790e+001 -3.130322e+001 -9.256028e+001  2.361978e+001  1.269673e+002 -1.181109e+001  1.231611e+002
5.3866875000e+009  1.753139e+000 -2.860163e+001 -3.199055e+001 -9.444030e+001  2.359515e+001  1.258157e+002 -1.194681e+001  1.254307e+002
5.3868125000e+009  1.805317e+000 -2.906677e+001 -3.170475e+001 -9.117443e+001  2.350762e+001  1.262289e+002 -1.177954e+001  1.247432e+002
5.3869375000e+009  1.775992e+000 -2.844468e+001 -3.183519e+001 -9.050225e+001  2.350936e+001  1.268811e+002 -1.159668e+001  1.246515e+002
5.3870625000e+009  1.748460e+000 -2.902090e+001 -3.177249e+001 -9.191270e+001  2.348886e+001  1.253171e+002 -1.193555e+001  1.256461e+002
5.3871875000e+009  1.860849e+000 -2.896574e+001 -3.168501e+001 -9.136983e+001  2.354119e+001  1.257020e+002 -1.192494e+001  1.249586e+002
5.3873125000e+009  1.950250e+000 -2.877451e+001 -3.185719e+001 -9.058139e+001  2.352314e+001  1.256456e+002 -1.180855e+001  1.251712e+002
5.3874375000e+009  1.849182e+000 -2.890487e+001 -3.163356e+001 -9.193248e+001  2.351246e+001  1.249218e+002 -1.206916e+001  1.260010e+002
5.3875625000e+009  1.907444e+000 -2.919203e+001 -3.183364e+001 -9.477512e+001  2.339135e+001  1.260935e+002 -1.178981e+001  1.265577e+002
5.3876875000e+009  1.869111e+000 -2.890869e+001 -3.142227e+001 -9.154832e+001  2.342687e+001  1.253720e+002 -1.200023e+001  1.259773e+002
5.3878125000e+009  1.859813e+000 -2.871299e+001 -3.133078e+001 -9.062696e+001  2.344922e+001  1.255301e+002 -1.197259e+001  1.252576e+002
5.3879375000e+009  1.921921e+000 -3.046485e+001 -3.209896e+001 -9.387053e+001  2.336394e+001  1.252045e+002 -1.193769e+001  1.271374e+002
5.3880625000e+009  1.876148e+000 -2.969934e+001 -3.159149e+001 -8.946363e+001  2.325159e+001  1.250818e+002 -1.191109e+001  1.272673e+002
5.3881875000e+009  1.915599e+000 -3.004092e+001 -3.153502e+001 -9.030279e+001  2.333271e+001  1.246745e+002 -1.214305e+001  1.268943e+002
5.3883125000e+009  1.903044e+000 -3.181497e+001 -3.184074e+001 -9.995728e+001  2.319227e+001  1.248555e+002 -1.218484e+001  1.302237e+002
5.3884375000e+009  1.964752e+000 -3.055761e+001 -3.128871e+001 -9.034811e+001  2.319029e+001  1.247051e+002 -1.210075e+001  1.279929e+002
5.3885625000e+009  1.941693e+000 -3.128831e+001 -3.173151e+001 -9.699639e+001  2.315643e+001  1.250057e+002 -1.219050e+001  1.299126e+002
5.3886875000e+009  1.772514e+000 -3.237699e+001 -3.147338e+001 -9.790755e+001  2.310211e+001  1.253764e+002 -1.219054e+001  1.298784e+002
5.3888125000e+009  1.953061e+000 -3.207489e+001 -3.119997e+001 -9.419803e+001  2.308577e+001  1.245087e+002 -1.234366e+001  1.299062e+002
5.3889375000e+009  1.860453e+000 -3.243109e+001 -3.170926e+001 -9.336659e+001  2.304740e+001  1.246350e+002 -1.222599e+001  1.306575e+002
5.3890625000e+009  1.911406e+000 -3.344556e+001 -3.151910e+001 -9.741751e+001  2.309060e+001  1.241661e+002 -1.249909e+001  1.310715e+002
5.3891875000e+009  1.923476e+000 -3.335973e+001 -3.210304e+001 -9.655756e+001  2.297483e+001  1.245186e+002 -1.223335e+001  1.323626e+002
5.3893125000e+009  1.956126e+000 -3.372649e+001 -3.159372e+001 -9.595625e+001  2.300968e+001  1.241570e+002 -1.247321e+001  1.319105e+002
5.3894375000e+009  1.980595e+000 -3.447224e+001 -3.208792e+001 -1.022121e+002  2.295953e+001  1.244469e+002 -1.236296e+001  1.335586e+002
5.3895625000e+009  1.854621e+000 -3.452390e+001 -3.203336e+001 -1.013563e+002  2.291391e+001  1.244227e+002 -1.246136e+001  1.343149e+002
5.3896875000e+009  1.886222e+000 -3.469542e+001 -3.100333e+001 -9.679304e+001  2.292834e+001  1.245398e+002 -1.269760e+001  1.316167e+002
5.3898125000e+009  2.019580e+000 -3.703767e+001 -3.144231e+001 -9.600467e+001  2.280267e+001  1.242405e+002 -1.257075e+001  1.326119e+002
5.3899375000e+009  1.914763e+000 -3.511936e+001 -3.197050e+001 -9.589587e+001  2.282473e+001  1.244525e+002 -1.238030e+001  1.334794e+002
5.3900625000e+009  1.986398e+000 -3.547409e+001 -3.159728e+001 -9.557264e+001  2.287581e+001  1.239511e+002 -1.268140e+001  1.328500e+002
5.3901875000e+009  2.091469e+000 -3.637241e+001 -3.120268e+001 -9.701521e+001  2.279975e+001  1.237011e+002 -1.282500e+001  1.340301e+002
5.3903125000e+009  1.967359e+000 -3.601988e+001 -3.182154e+001 -1.012751e+002  2.284578e+001  1.244513e+002 -1.266241e+001  1.343821e+002
5.3904375000e+009  1.855325e+000 -3.701513e+001 -3.160187e+001 -9.946098e+001  2.279107e+001  1.244428e+002 -1.273664e+001  1.343436e+002
5.3905625000e+009  2.121113e+000 -3.705349e+001 -3.112488e+001 -1.003758e+002  2.274434e+001  1.236598e+002 -1.298010e+001  1.353119e+002
5.3906875000e+009  1.758041e+000 -3.752672e+001 -3.168247e+001 -1.033317e+002  2.268813e+001  1.242090e+002 -1.279858e+001  1.373525e+002
5.3908125000e+009  2.156589e+000 -3.905130e+001 -3.109064e+001 -9.807879e+001  2.272176e+001  1.237963e+002 -1.305296e+001  1.339294e+002
5.3909375000e+009  1.972648e+000 -3.997049e+001 -3.117727e+001 -1.072005e+002  2.255618e+001  1.240543e+002 -1.296481e+001  1.384807e+002
5.3910625000e+009  1.920526e+000 -3.918980e+001 -3.134621e+001 -1.024073e+002  2.256861e+001  1.243370e+002 -1.289080e+001  1.368642e+002
5.3911875000e+009  2.042753e+000 -3.905231e+001 -3.134159e+001 -1.062316e+002  2.265860e+001  1.238254e+002 -1.315860e+001  1.379007e+002
5.3913125000e+009  2.204246e+000 -3.970413e+001 -3.172391e+001 -1.044557e+002  2.248840e+001  1.236360e+002 -1.280856e+001  1.386497e+002
5.3914375000e+009  2.045437e+000 -4.087430e+001 -3.149497e+001 -1.107065e+002  2.240908e+001  1.238661e+002 -1.284111e+001  1.413641e+002
5.3915625000e+009  1.960487e+000 -3.968248e+001 -3.130182e+001 -1.044816e+002  2.256062e+001  1.236846e+002 -1.317667e+001  1.388706e+002
5.3916875000e+009  2.281900e+000 -4.230258e+001 -3.126472e+001 -1.023749e+002  2.242693e+001  1.235106e+002 -1.310864e+001  1.377867e+002
5.3918125000e+009  1.942787e+000 -3.989911e+001 -3.138265e+001 -1.015039e+002  2.241971e+001  1.236558e+002 -1.301725e+001  1.395525e+002
5.3919375000e+009  2.018695e+000 -4.082877e+001 -3.168277e+001 -1.044337e+002  2.243383e+001  1.237034e+002 -1.312208e+001  1.398058e+002
5.3920625000e+009  2.062303e+000 -4.102517e+001 -3.156153e+001 -1.052570e+002  2.240552e+001  1.237781e+002 -1.303518e+001  1.398880e+002
5.3921875000e+009  2.087914e+000 -4.192580e+001 -3.102261e+001 -1.039520e+002  2.227534e+001  1.237055e+002 -1.312941e+001  1.409477e+002
5.3923125000e+009  2.196810e+000 -4.299086e+001 -3.133392e+001 -1.044543e+002  2.230753e+001  1.238563e+002 -1.316416e+001  1.406545e+002
5.3924375000e+009  2.292671e+000 -4.303305e+001 -3.071078e+001 -1.042216e+002  2.225021e+001  1.233216e+002 -1.342905e+001  1.407926e+002
5.3925625000e+009  2.228736e+000 -4.295902e+001 -3.081200e+001 -1.051543e+002  2.222389e+001  1.234124e+002 -1.332523e+001  1.420910e+002
5.3926875000e+009  2.241923e+000 -4.354079e+001 -3.022189e+001 -1.056789e+002  2.224356e+001  1.232774e+002 -1.382516e+001  1.417362e+002
5.3928125000e+009  2.273077e+000 -4.371708e+001 -3.097896e+001 -1.009026e+002  2.220651e+001  1.233025e+002 -1.329453e+001  1.402900e+002
5.3929375000e+009  2.114807e+000 -4.400081e+001 -3.167249e+001 -1.074850e+002  2.217833e+001  1.234653e+002 -1.312298e+001  1.420487e+002
5.3930625000e+009  2.046592e+000 -4.391684e+001 -3.182989e+001 -1.079870e+002  2.218145e+001  1.240119e+002 -1.316653e+001  1.421582e+002
5.3931875000e+009  2.324597e+000 -4.441802e+001 -3.107902e+001 -1.088306e+002  2.213674e+001  1.230571e+002 -1.348850e+001  1.434849e+002
5.3933125000e+009  1.832117e+000 -4.405213e+001 -3.077480e+001 -1.076559e+002  2.216253e+001  1.239005e+002 -1.347107e+001  1.435010e+002
5.3934375000e+009  1.951574e+000 -4.288377e+001 -3.174717e+001 -1.115229e+002  2.217024e+001  1.236917e+002 -1.322477e+001  1.441234e+002
5.3935625000e+009  2.769936e+000 -4.543717e+001 -3.076941e+001 -1.084253e+002  2.202826e+001  1.226502e+002 -1.362443e+001  1.433050e+002
5.3936875000e+009  2.227849e+000 -4.512687e+001 -3.161579e+001 -1.046040e+002  2.202689e+001  1.233541e+002 -1.329370e+001  1.428190e+002
5.3938125000e+009  2.329872e+000 -4.744610e+001 -3.068437e+001 -1.098072e+002  2.199441e+001  1.236095e+002 -1.356404e+001  1.430866e+002
5.3939375000e+009  2.366830e+000 -4.714663e+001 -3.105721e+001 -1.101807e+002  2.194152e+001  1.232233e+002 -1.348643e+001  1.451506e+002
5.3940625000e+009  2.454478e+000 -4.809193e+001 -3.096106e+001 -1.116852e+002  2.184529e+001  1.230985e+002 -1.338617e+001  1.467761e+002
5.3941875000e+009  2.593810e+000 -4.568501e+001 -3.087667e+001 -1.102172e+002  2.196702e+001  1.226865e+002 -1.357939e+001  1.448098e+002
5.3943125000e+009  2.565205e+000 -4.697782e+001 -3.087081e+001 -1.122974e+002  2.188380e+001  1.228698e+002 -1.345572e+001  1.463892e+002
5.3944375000e+009  2.949601e+000 -4.780216e+001 -3.035562e+001 -1.068781e+002  2.179959e+001  1.222585e+002 -1.379566e+001  1.457217e+002
5.3945625000e+009  2.767281e+000 -4.750225e+001 -3.011881e+001 -1.092279e+002  2.183727e+001  1.224125e+002 -1.391133e+001  1.454052e+002
5.3946875000e+009  2.670559e+000 -4.866180e+001 -3.102352e+001 -1.095832e+002  2.179468e+001  1.228295e+002 -1.352789e+001  1.460682e+002
5.3948125000e+009  2.552792e+000 -4.858720e+001 -3.095899e+001 -1.094657e+002  2.179712e+001  1.231468e+002 -1.357916e+001  1.464452e+002
5.3949375000e+009  2.619936e+000 -4.783649e+001 -3.048037e+001 -1.110936e+002  2.178152e+001  1.230383e+002 -1.369226e+001  1.463002e+002
5.3950625000e+009  2.988982e+000 -4.930589e+001 -3.056775e+001 -1.089604e+002  2.169911e+001  1.224483e+002 -1.378606e+001  1.460660e+002
5.3951875000e+009  2.717519e+000 -4.852604e+001 -3.016444e+001 -1.137588e+002  2.178967e+001  1.225831e+002 -1.371417e+001  1.486218e+002
5.3953125000e+009  2.674789e+000 -4.830597e+001 -3.127620e+001 -1.112383e+002  2.176866e+001  1.228210e+002 -1.345195e+001  1.468370e+002
5.3954375000e+009  2.882588e+000 -4.881990e+001 -3.063998e+001 -1.092930e+002  2.173171e+001  1.224100e+002 -1.380817e+001  1.456861e+002
5.3955625000e+009  2.638520e+000 -4.948307e+001 -3.125576e+001 -1.116791e+002  2.167631e+001  1.227687e+002 -1.348880e+001  1.475913e+002
5.3956875000e+009  2.623730e+000 -4.921351e+001 -3.047683e+001 -1.133199e+002  2.169256e+001  1.230279e+002 -1.376111e+001  1.482546e+002
5.3958125000e+009  3.244420e+000 -5.120782e+001 -2.945967e+001 -1.133597e+002  2.153536e+001  1.222317e+002 -1.404013e+001  1.501718e+002
5.3959375000e+009  3.300003e+000 -5.072123e+001 -3.026317e+001 -1.112066e+002  2.155549e+001  1.221002e+002 -1.389522e+001  1.483340e+002
5.3960625000e+009  2.904060e+000 -4.992273e+001 -3.079054e+001 -1.136164e+002  2.164101e+001  1.223894e+002 -1.368672e+001  1.484633e+002
5.3961875000e+009  3.441251e+000 -5.196824e+001 -3.072210e+001 -1.145374e+002  2.141950e+001  1.218817e+002 -1.368414e+001  1.484427e+002
5.3963125000e+009  2.807434e+000 -5.145825e+001 -3.078776e+001 -1.138787e+002  2.159396e+001  1.227189e+002 -1.373877e+001  1.485914e+002
5.3964375000e+009  3.033530e+000 -5.206808e+001 -3.068653e+001 -1.090954e+002  2.149083e+001  1.226240e+002 -1.378928e+001  1.477169e+002
5.3965625000e+009  3.193620e+000 -5.071932e+001 -3.042771e+001 -1.123395e+002  2.149974e+001  1.222335e+002 -1.390225e+001  1.483818e+002
5.3966875000e+009  3.186224e+000 -5.203320e+001 -2.994575e+001 -1.159619e+002  2.142549e+001  1.224376e+002 -1.392206e+001  1.499779e+002
5.3968125000e+009  3.319813e+000 -5.187053e+001 -3.075757e+001 -1.107923e+002  2.145432e+001  1.222051e+002 -1.380971e+001  1.485440e+002
5.3969375000e+009  3.595513e+000 -5.225643e+001 -3.010205e+001 -1.135823e+002  2.140345e+001  1.217775e+002 -1.394315e+001  1.496083e+002
5.3970625000e+009  3.902123e+000 -5.273849e+001 -3.004286e+001 -1.182988e+002  2.130056e+001  1.209667e+002 -1.379029e+001  1.514396e+002
5.3971875000e+009  3.023254e+000 -5.419409e+001 -3.029329e+001 -1.162064e+002  2.136619e+001  1.228949e+002 -1.386520e+001  1.498219e+002
5.3973125000e+009  3.398634e+000 -5.294128e+001 -3.061259e+001 -1.177416e+002  2.136449e+001  1.217867e+002 -1.364422e+001  1.493646e+002
5.3974375000e+009  3.856336e+000 -5.602647e+001 -2.976642e+001 -1.183580e+002  2.115697e+001  1.219899e+002 -1.387692e+001  1.523443e+002
5.3975625000e+009  3.654707e+000 -5.505330e+001 -3.003491e+001 -1.169063e+002  2.122525e+001  1.222721e+002 -1.386643e+001  1.511875e+002
5.3976875000e+009  3.642123e+000 -5.484560e+001 -3.046890e+001 -1.174082e+002  2.121735e+001  1.220453e+002 -1.369727e+001  1.504359e+002
5.3978125000e+009  3.556605e+000 -5.309814e+001 -3.069439e+001 -1.195234e+002  2.125581e+001  1.222381e+002 -1.361699e+001  1.510509e+002
5.3979375000e+009  3.440299e+000 -5.551446e+001 -3.037651e+001 -1.180707e+002  2.130599e+001  1.230423e+002 -1.374292e+001  1.510985e+002
5.3980625000e+009  3.997144e+000 -5.436710e+001 -3.038531e+001 -1.147611e+002  2.118134e+001  1.214948e+002 -1.385643e+001  1.502799e+002
5.3981875000e+009  3.678379e+000 -5.476244e+001 -2.946455e+001 -1.157896e+002  2.123723e+001  1.222822e+002 -1.410467e+001  1.520578e+002
5.3983125000e+009  3.730058e+000 -5.515532e+001 -2.990791e+001 -1.162886e+002  2.115745e+001  1.222814e+002 -1.388050e+001  1.515790e+002
5.3984375000e+009  4.016515e+000 -5.598895e+001 -3.067368e+001 -1.163508e+002  2.104253e+001  1.219964e+002 -1.377003e+001  1.502476e+002
5.3985625000e+009  4.026226e+000 -5.436129e+001 -3.008813e+001 -1.192705e+002  2.109101e+001  1.214352e+002 -1.378393e+001  1.515303e+002
5.3986875000e+009  3.629470e+000 -5.660315e+001 -2.993350e+001 -1.191694e+002  2.111150e+001  1.224654e+002 -1.377990e+001  1.517911e+002
5.3988125000e+009  4.148304e+000 -5.589074e+001 -2.988891e+001 -1.206262e+002  2.103565e+001  1.212859e+002 -1.367592e+001  1.517740e+002
5.3989375000e+009  3.881841e+000 -5.854282e+001 -2.910089e+001 -1.187897e+002  2.107935e+001  1.225375e+002 -1.395156e+001  1.531697e+002
5.3990625000e+009  3.560792e+000 -5.834537e+001 -2.984685e+001 -1.248660e+002  2.107610e+001  1.223107e+002 -1.352845e+001  1.527210e+002
5.3991875000e+009  4.175454e+000 -5.607934e+001 -2.962878e+001 -1.235192e+002  2.105483e+001  1.215178e+002 -1.371926e+001  1.528811e+002
5.3993125000e+009  4.175718e+000 -5.705257e+001 -3.029309e+001 -1.172238e+002  2.091068e+001  1.221775e+002 -1.384529e+001  1.511636e+002
5.3994375000e+009  3.811551e+000 -5.790766e+001 -2.979750e+001 -1.216851e+002  2.105400e+001  1.222299e+002 -1.369322e+001  1.524473e+002
5.3995625000e+009  4.092130e+000 -5.802852e+001 -3.010829e+001 -1.221591e+002  2.093540e+001  1.220438e+002 -1.362298e+001  1.522181e+002
5.3996875000e+009  4.301057e+000 -5.571840e+001 -2.972540e+001 -1.306190e+002  2.094873e+001  1.215304e+002 -1.337330e+001  1.540440e+002
5.3998125000e+009  4.215982e+000 -5.922802e+001 -3.048003e+001 -1.245028e+002  2.089027e+001  1.225401e+002 -1.347061e+001  1.525296e+002
5.3999375000e+009  4.369812e+000 -5.813146e+001 -3.023900e+001 -1.152318e+002  2.088905e+001  1.211883e+002 -1.381454e+001  1.495758e+002
5.4000625000e+009  4.280313e+000 -5.796500e+001 -2.936551e+001 -1.246973e+002  2.087253e+001  1.218422e+002 -1.358503e+001  1.535550e+002
5.4001875000e+009  4.071712e+000 -5.882819e+001 -2.962193e+001 -1.269645e+002  2.095600e+001  1.226689e+002 -1.349207e+001  1.531807e+002
5.4003125000e+009  4.484198e+000 -5.920038e+001 -2.916946e+001 -1.252332e+002  2.088273e+001  1.222229e+002 -1.357633e+001  1.540754e+002
5.4004375000e+009  4.195440e+000 -5.895110e+001 -2.999235e+001 -1.274326e+002  2.093497e+001  1.224658e+002 -1.341036e+001  1.528733e+002
5.4005625000e+009  4.252439e+000 -6.139707e+001 -2.962881e+001 -1.253271e+002  2.083296e+001  1.231242e+002 -1.344528e+001  1.534961e+002
5.4006875000e+009  4.661657e+000 -6.043588e+001 -2.960092e+001 -1.192678e+002  2.069858e+001  1.216441e+002 -1.378598e+001  1.517839e+002
5.4008125000e+009  4.419611e+000 -6.014682e+001 -2.979420e+001 -1.210899e+002  2.074608e+001  1.224100e+002 -1.386976e+001  1.524488e+002
5.4009375000e+009  4.400013e+000 -6.185457e+001 -2.967197e+001 -1.243682e+002  2.080548e+001  1.227814e+002 -1.358395e+001  1.534531e+002
5.4010625000e+009  4.521821e+000 -6.068523e+001 -2.952535e+001 -1.278867e+002  2.074191e+001  1.217175e+002 -1.344882e+001  1.542593e+002
5.4011875000e+009  4.275914e+000 -6.276595e+001 -2.932010e+001 -1.275764e+002  2.081530e+001  1.231865e+002 -1.357650e+001  1.549338e+002
5.4013125000e+009  4.383718e+000 -6.377585e+001 -2.971147e+001 -1.285935e+002  2.082175e+001  1.236535e+002 -1.341252e+001  1.544836e+002
5.4014375000e+009  4.485683e+000 -6.086185e+001 -2.984645e+001 -1.255015e+002  2.079220e+001  1.222914e+002 -1.360793e+001  1.540143e+002
5.4015625000e+009  4.643043e+000 -6.328514e+001 -2.939384e+001 -1.250367e+002  2.061762e+001  1.233616e+002 -1.380666e+001  1.547561e+002
5.4016875000e+009  4.472544e+000 -6.250224e+001 -2.934508e+001 -1.263794e+002  2.080495e+001  1.231659e+002 -1.363552e+001  1.550752e+002
5.4018125000e+009  4.507058e+000 -6.295714e+001 -2.962032e+001 -1.252627e+002  2.073298e+001  1.227269e+002 -1.365263e+001  1.544792e+002
5.4019375000e+009  4.496443e+000 -6.372932e+001 -2.908308e+001 -1.319734e+002  2.070079e+001  1.233288e+002 -1.343944e+001  1.564229e+002
5.4020625000e+009  4.513351e+000 -6.586303e+001 -2.929849e+001 -1.264155e+002  2.069316e+001  1.241010e+002 -1.363090e+001  1.553419e+002
5.4021875000e+009  4.510695e+000 -6.325167e+001 -2.994315e+001 -1.287258e+002  2.087476e+001  1.221180e+002 -1.336302e+001  1.548190e+002
5.4023125000e+009  4.609254e+000 -6.375728e+001 -2.987966e+001 -1.281071e+002  2.071662e+001  1.231928e+002 -1.346557e+001  1.545341e+002
5.4024375000e+009  4.578691e+000 -6.648207e+001 -2.888421e+001 -1.290275e+002  2.074416e+001  1.239265e+002 -1.351670e+001  1.570952e+002
5.4025625000e+009  4.631701e+000 -6.496038e+001 -2.890619e+001 -1.315631e+002  2.083744e+001  1.234139e+002 -1.337407e+001  1.569109e+002
5.4026875000e+009  4.694606e+000 -6.678097e+001 -2.973106e+001 -1.284123e+002  2.062786e+001  1.239465e+002 -1.350418e+001  1.548294e+002
5.4028125000e+009  4.444242e+000 -6.803629e+001 -2.902534e+001 -1.347370e+002  2.081256e+001  1.237191e+002 -1.309440e+001  1.570334e+002
5.4029375000e+009  4.556235e+000 -6.597462e+001 -2.929892e+001 -1.336792e+002  2.091138e+001  1.234382e+002 -1.319473e+001  1.562510e+002
5.4030625000e+009  4.663183e+000 -6.617625e+001 -2.955609e+001 -1.317892e+002  2.069445e+001  1.234543e+002 -1.336738e+001  1.553595e+002
5.4031875000e+009  4.741981e+000 -6.788475e+001 -2.947454e+001 -1.342107e+002  2.077941e+001  1.241812e+002 -1.312996e+001  1.560609e+002
5.4033125000e+009  4.674772e+000 -6.785719e+001 -2.939633e+001 -1.300782e+002  2.074086e+001  1.240806e+002 -1.336873e+001  1.555430e+002
5.4034375000e+009  4.612027e+000 -6.656795e+001 -2.949208e+001 -1.322845e+002  2.083099e+001  1.229512e+002 -1.318961e+001  1.555944e+002
5.4035625000e+009  4.747417e+000 -6.918189e+001 -2.997455e+001 -1.312855e+002  2.074617e+001  1.247553e+002 -1.325949e+001  1.543170e+002
5.4036875000e+009  4.612846e+000 -6.960704e+001 -2.892334e+001 -1.345916e+002  2.080643e+001  1.235877e+002 -1.302989e+001  1.572447e+002
5.4038125000e+009  4.736143e+000 -7.029539e+001 -2.891874e+001 -1.342075e+002  2.078453e+001  1.245951e+002 -1.311261e+001  1.569264e+002
5.4039375000e+009  4.743264e+000 -7.026947e+001 -2.928362e+001 -1.354931e+002  2.080651e+001  1.245708e+002 -1.298498e+001  1.565216e+002
5.4040625000e+009  4.743549e+000 -6.840623e+001 -2.844534e+001 -1.300606e+002  2.087370e+001  1.237186e+002 -1.330841e+001  1.576772e+002
5.4041875000e+009  4.766768e+000 -7.010976e+001 -2.891408e+001 -1.377156e+002  2.079253e+001  1.244854e+002 -1.291788e+001  1.567120e+002
5.4043125000e+009  4.752316e+000 -7.186395e+001 -2.903025e+001 -1.329321e+002  2.079041e+001  1.243686e+002 -1.304769e+001  1.565456e+002
5.4044375000e+009  4.777605e+000 -7.110210e+001 -2.932381e+001 -1.338393e+002  2.080625e+001  1.244893e+002 -1.299213e+001  1.556082e+002
5.4045625000e+009  4.834932e+000 -7.111853e+001 -2.894321e+001 -1.368478e+002  2.075495e+001  1.243531e+002 -1.282135e+001  1.561747e+002
5.4046875000e+009  4.807454e+000 -7.269670e+001 -2.864822e+001 -1.383373e+002  2.083105e+001  1.247202e+002 -1.273627e+001  1.565948e+002
5.4048125000e+009  4.708992e+000 -7.241843e+001 -2.902592e+001 -1.407331e+002  2.082824e+001  1.241693e+002 -1.246568e+001  1.558366e+002
5.4049375000e+009  4.832376e+000 -7.313467e+001 -2.898744e+001 -1.439175e+002  2.073745e+001  1.250673e+002 -1.239135e+001  1.553895e+002
5.4050625000e+009  4.821875e+000 -7.404823e+001 -2.871138e+001 -1.415128e+002  2.073062e+001  1.251116e+002 -1.241278e+001  1.560265e+002
5.4051875000e+009  4.877551e+000 -7.425185e+001 -2.933130e+001 -1.379178e+002  2.087826e+001  1.250557e+002 -1.246952e+001  1.548800e+002
5.4053125000e+009  4.834916e+000 -7.418096e+001 -2.960833e+001 -1.408433e+002  2.074056e+001  1.250364e+002 -1.239060e+001  1.535370e+002
5.4054375000e+009  4.872962e+000 -7.520259e+001 -2.921558e+001 -1.416775e+002  2.077414e+001  1.255730e+002 -1.228739e+001  1.537458e+002
5.4055625000e+009  4.818932e+000 -7.520737e+001 -2.881386e+001 -1.397792e+002  2.092550e+001  1.257844e+002 -1.228457e+001  1.542910e+002
5.4056875000e+009  4.815641e+000 -7.553857e+001 -2.948944e+001 -1.396330e+002  2.084863e+001  1.252980e+002 -1.217350e+001  1.521174e+002
5.4058125000e+009  4.854290e+000 -7.597418e+001 -2.923845e+001 -1.402757e+002  2.078184e+001  1.252349e+002 -1.205093e+001  1.520657e+002
5.4059375000e+009  4.832373e+000 -7.566839e+001 -2.913006e+001 -1.429417e+002  2.093825e+001  1.254049e+002 -1.184625e+001  1.515760e+002
5.4060625000e+009  4.744067e+000 -7.568034e+001 -2.944486e+001 -1.429065e+002  2.089306e+001  1.254578e+002 -1.185237e+001  1.496893e+002
5.4061875000e+009  4.817463e+000 -7.646920e+001 -3.020087e+001 -1.430291e+002  2.078698e+001  1.259828e+002 -1.178267e+001  1.474732e+002
5.4063125000e+009  4.828374e+000 -7.674550e+001 -2.957753e+001 -1.413537e+002  2.086087e+001  1.265317e+002 -1.187973e+001  1.471237e+002
5.4064375000e+009  4.797391e+000 -7.584083e+001 -2.896278e+001 -1.407289e+002  2.078398e+001  1.265081e+002 -1.183947e+001  1.465576e+002
5.4065625000e+009  4.910118e+000 -7.685815e+001 -2.988401e+001 -1.365940e+002  2.083939e+001  1.270420e+002 -1.207898e+001  1.433473e+002
5.4066875000e+009  4.952249e+000 -7.628761e+001 -3.029291e+001 -1.389459e+002  2.092099e+001  1.275487e+002 -1.196461e+001  1.418692e+002
5.4068125000e+009  4.971144e+000 -7.679498e+001 -2.908323e+001 -1.395169e+002  2.091636e+001  1.273308e+002 -1.221594e+001  1.429598e+002
5.4069375000e+009  5.055772e+000 -7.663440e+001 -2.911699e+001 -1.395556e+002  2.091805e+001  1.278906e+002 -1.235295e+001  1.414946e+002
5.4070625000e+009  5.062879e+000 -7.651672e+001 -2.973226e+001 -1.409402e+002  2.100272e+001  1.277220e+002 -1.234596e+001  1.402150e+002
5.4071875000e+009  5.228007e+000 -7.690805e+001 -2.883880e+001 -1.332474e+002  2.106875e+001  1.278144e+002 -1.300252e+001  1.402984e+002
5.4073125000e+009  5.301671e+000 -7.761827e+001 -2.886787e+001 -1.388319e+002  2.110427e+001  1.279995e+002 -1.289643e+001  1.410253e+002
5.4074375000e+009  5.299621e+000 -7.821830e+001 -2.912617e+001 -1.406351e+002  2.114077e+001  1.278460e+002 -1.291236e+001  1.412354e+002
5.4075625000e+009  5.340114e+000 -7.804428e+001 -2.887204e+001 -1.421534e+002  2.112904e+001  1.276237e+002 -1.299239e+001  1.418495e+002
5.4076875000e+009  5.516547e+000 -7.871511e+001 -2.886170e+001 -1.403896e+002  2.109627e+001  1.281078e+002 -1.300981e+001  1.419952e+002
5.4078125000e+009  5.510759e+000 -7.877618e+001 -2.918218e+001 -1.413943e+002  2.121442e+001  1.279805e+002 -1.309619e+001  1.415016e+002
5.4079375000e+009  5.497085e+000 -7.915311e+001 -2.898301e+001 -1.389937e+002  2.122801e+001  1.273937e+002 -1.327547e+001  1.421134e+002
5.4080625000e+009  5.599991e+000 -7.983696e+001 -2.901714e+001 -1.402340e+002  2.121036e+001  1.275094e+002 -1.316941e+001  1.421730e+002
5.4081875000e+009  5.750031e+000 -8.057939e+001 -2.863580e+001 -1.429340e+002  2.122865e+001  1.276054e+002 -1.309767e+001  1.438706e+002
5.4083125000e+009  5.717993e+000 -8.168729e+001 -2.825940e+001 -1.413332e+002  2.134238e+001  1.279554e+002 -1.320279e+001  1.440500e+002
5.4084375000e+009  5.597827e+000 -8.061603e+001 -2.848116e+001 -1.440470e+002  2.134947e+001  1.272018e+002 -1.296408e+001  1.436896e+002
5.4085625000e+009  5.814205e+000 -8.200255e+001 -2.834299e+001 -1.403884e+002  2.131431e+001  1.275310e+002 -1.318508e+001  1.451437e+002
5.4086875000e+009  5.701712e+000 -8.237694e+001 -2.878345e+001 -1.452447e+002  2.134292e+001  1.271390e+002 -1.291567e+001  1.434661e+002
5.4088125000e+009  5.797481e+000 -8.244360e+001 -2.796670e+001 -1.396549e+002  2.137582e+001  1.275461e+002 -1.313426e+001  1.452875e+002
5.4089375000e+009  5.908613e+000 -8.324728e+001 -2.819912e+001 -1.487007e+002  2.145041e+001  1.277446e+002 -1.268941e+001  1.441597e+002
5.4090625000e+009  5.895866e+000 -8.468198e+001 -2.853616e+001 -1.467843e+002  2.143255e+001  1.280211e+002 -1.264324e+001  1.437024e+002
5.4091875000e+009  5.930652e+000 -8.349918e+001 -2.865131e+001 -1.430429e+002  2.141549e+001  1.270529e+002 -1.284468e+001  1.440940e+002
5.4093125000e+009  5.735436e+000 -8.376465e+001 -2.794160e+001 -1.451840e+002  2.159010e+001  1.274732e+002 -1.286232e+001  1.442370e+002
5.4094375000e+009  5.893304e+000 -8.427693e+001 -2.827406e+001 -1.468676e+002  2.155727e+001  1.273206e+002 -1.275254e+001  1.436991e+002
5.4095625000e+009  5.915213e+000 -8.464721e+001 -2.799370e+001 -1.456247e+002  2.152112e+001  1.274428e+002 -1.265440e+001  1.445926e+002
5.4096875000e+009  6.131828e+000 -8.427238e+001 -2.851773e+001 -1.451113e+002  2.152557e+001  1.272210e+002 -1.272424e+001  1.430408e+002
5.4098125000e+009  6.138119e+000 -8.452847e+001 -2.823802e+001 -1.469449e+002  2.155073e+001  1.272375e+002 -1.244046e+001  1.431964e+002
5.4099375000e+009  6.006843e+000 -8.565036e+001 -2.887366e+001 -1.462876e+002  2.163952e+001  1.274745e+002 -1.262817e+001  1.421467e+002
5.4100625000e+009  6.102587e+000 -8.653632e+001 -2.806922e+001 -1.501656e+002  2.168734e+001  1.273565e+002 -1.232746e+001  1.432294e+002
5.4101875000e+009  6.045645e+000 -8.571149e+001 -2.884902e+001 -1.525808e+002  2.171440e+001  1.268721e+002 -1.228104e+001  1.407162e+002
5.4103125000e+009  5.958935e+000 -8.652074e+001 -2.806508e+001 -1.453792e+002  2.174343e+001  1.267411e+002 -1.249959e+001  1.432435e+002
5.4104375000e+009  6.129641e+000 -8.664228e+001 -2.789244e+001 -1.520460e+002  2.176817e+001  1.277765e+002 -1.216181e+001  1.416479e+002
5.4105625000e+009  6.265991e+000 -8.614175e+001 -2.842278e+001 -1.502870e+002  2.175344e+001  1.268908e+002 -1.228336e+001  1.415076e+002
5.4106875000e+009  6.217933e+000 -8.610476e+001 -2.865606e+001 -1.508703e+002  2.177233e+001  1.266781e+002 -1.217295e+001  1.416001e+002
5.4108125000e+009  6.073123e+000 -8.768089e+001 -2.879325e+001 -1.534388e+002  2.185835e+001  1.274624e+002 -1.193244e+001  1.408295e+002
5.4109375000e+009  6.304442e+000 -8.794488e+001 -2.784423e+001 -1.497775e+002  2.184671e+001  1.271391e+002 -1.211941e+001  1.410566e+002
5.4110625000e+009  6.077984e+000 -8.722449e+001 -2.810515e+001 -1.521457e+002  2.190330e+001  1.266976e+002 -1.193258e+001  1.419069e+002
5.4111875000e+009  6.313087e+000 -8.698402e+001 -2.777754e+001 -1.490679e+002  2.189269e+001  1.264658e+002 -1.205600e+001  1.412768e+002
5.4113125000e+009  6.612853e+000 -8.845251e+001 -2.783989e+001 -1.506277e+002  2.183907e+001  1.268548e+002 -1.196835e+001  1.423616e+002
5.4114375000e+009  6.272618e+000 -8.820387e+001 -2.862064e+001 -1.531605e+002  2.200815e+001  1.265809e+002 -1.179074e+001  1.385643e+002
5.4115625000e+009  6.285653e+000 -8.849555e+001 -2.803561e+001 -1.509483e+002  2.196599e+001  1.265977e+002 -1.185404e+001  1.398383e+002
5.4116875000e+009  6.164292e+000 -8.821765e+001 -2.776045e+001 -1.512466e+002  2.212591e+001  1.265096e+002 -1.157571e+001  1.397154e+002
5.4118125000e+009  6.600749e+000 -8.844337e+001 -2.790977e+001 -1.529026e+002  2.198376e+001  1.267499e+002 -1.158510e+001  1.397841e+002
5.4119375000e+009  6.232810e+000 -8.971841e+001 -2.812052e+001 -1.508547e+002  2.211878e+001  1.266354e+002 -1.172216e+001  1.392004e+002
5.4120625000e+009  6.452517e+000 -8.853062e+001 -2.848846e+001 -1.514688e+002  2.210507e+001  1.260757e+002 -1.159595e+001  1.389428e+002
5.4121875000e+009  6.144592e+000 -8.693307e+001 -2.852981e+001 -1.496509e+002  2.211703e+001  1.253283e+002 -1.166930e+001  1.389597e+002
5.4123125000e+009  6.578233e+000 -8.916084e+001 -2.807699e+001 -1.581297e+002  2.217129e+001  1.265271e+002 -1.116809e+001  1.371029e+002
5.4124375000e+009  6.719037e+000 -8.860658e+001 -2.749759e+001 -1.542241e+002  2.212997e+001  1.260961e+002 -1.120596e+001  1.400734e+002
5.4125625000e+009  6.368216e+000 -8.883478e+001 -2.826092e+001 -1.524289e+002  2.228228e+001  1.256291e+002 -1.123460e+001  1.368931e+002
5.4126875000e+009  6.533223e+000 -8.908937e+001 -2.841056e+001 -1.511153e+002  2.222457e+001  1.259577e+002 -1.138930e+001  1.377544e+002
5.4128125000e+009  6.470398e+000 -8.986475e+001 -2.733944e+001 -1.549360e+002  2.228170e+001  1.257979e+002 -1.117152e+001  1.391679e+002
5.4129375000e+009  6.519801e+000 -9.025972e+001 -2.810255e+001 -1.584615e+002  2.231278e+001  1.260166e+002 -1.098747e+001  1.380166e+002
5.4130625000e+009  6.547435e+000 -8.952753e+001 -2.795355e+001 -1.557690e+002  2.233657e+001  1.255950e+002 -1.101709e+001  1.376633e+002
5.4131875000e+009  6.497097e+000 -9.011512e+001 -2.865503e+001 -1.506058e+002  2.237177e+001  1.256049e+002 -1.130678e+001  1.373315e+002
5.4133125000e+009  6.043493e+000 -8.944498e+001 -2.833080e+001 -1.527855e+002  2.247055e+001  1.253418e+002 -1.110235e+001  1.386416e+002
5.4134375000e+009  6.131625e+000 -9.160638e+001 -2.848915e+001 -1.570399e+002  2.252628e+001  1.250953e+002 -1.093274e+001  1.358019e+002
5.4135625000e+009  6.581166e+000 -9.197692e+001 -2.766101e+001 -1.543769e+002  2.250841e+001  1.257523e+002 -1.091825e+001  1.385459e+002
5.4136875000e+009  5.917786e+000 -9.065758e+001 -2.884986e+001 -1.559014e+002  2.258955e+001  1.246765e+002 -1.102322e+001  1.370530e+002
5.4138125000e+009  6.462798e+000 -9.278489e+001 -2.815007e+001 -1.567898e+002  2.257175e+001  1.252406e+002 -1.087071e+001  1.366295e+002
5.4139375000e+009  6.355379e+000 -9.329903e+001 -2.806828e+001 -1.555199e+002  2.268051e+001  1.257696e+002 -1.073840e+001  1.382697e+002
5.4140625000e+009  6.023700e+000 -9.269846e+001 -2.800755e+001 -1.612607e+002  2.269544e+001  1.250265e+002 -1.070499e+001  1.379907e+002
5.4141875000e+009  6.212206e+000 -9.323868e+001 -2.828224e+001 -1.600983e+002  2.272967e+001  1.254409e+002 -1.061664e+001  1.379773e+002
5.4143125000e+009  6.436408e+000 -9.378855e+001 -2.829611e+001 -1.584552e+002  2.273348e+001  1.253333e+002 -1.064924e+001  1.371232e+002
5.4144375000e+009  6.372036e+000 -9.264091e+001 -2.783244e+001 -1.565607e+002  2.272083e+001  1.253574e+002 -1.066441e+001  1.392344e+002
5.4145625000e+009  5.904439e+000 -9.384881e+001 -2.857442e+001 -1.577992e+002  2.294214e+001  1.246587e+002 -1.047660e+001  1.372242e+002
5.4146875000e+009  6.438595e+000 -9.352795e+001 -2.843391e+001 -1.534366e+002  2.283714e+001  1.243676e+002 -1.069355e+001  1.359574e+002
5.4148125000e+009  5.936052e+000 -9.490702e+001 -2.785872e+001 -1.601168e+002  2.304284e+001  1.240340e+002 -1.029033e+001  1.365062e+002
5.4149375000e+009  6.164257e+000 -9.455782e+001 -2.777748e+001 -1.595554e+002  2.292711e+001  1.248348e+002 -1.046088e+001  1.379906e+002
5.4150625000e+009  6.107123e+000 -9.485765e+001 -2.851402e+001 -1.636737e+002  2.300137e+001  1.242780e+002 -1.038706e+001  1.359647e+002
5.4151875000e+009  5.896642e+000 -9.634407e+001 -2.837848e+001 -1.551079e+002  2.314590e+001  1.243369e+002 -1.047080e+001  1.377213e+002
5.4153125000e+009  5.871844e+000 -9.443668e+001 -2.854706e+001 -1.607866e+002  2.307647e+001  1.236754e+002 -1.031269e+001  1.359953e+002
5.4154375000e+009  5.841625e+000 -9.674328e+001 -2.838413e+001 -1.606703e+002  2.311887e+001  1.239922e+002 -1.037807e+001  1.362867e+002
5.4155625000e+009  5.785008e+000 -9.721867e+001 -2.893104e+001 -1.604686e+002  2.320219e+001  1.240023e+002 -1.035942e+001  1.364893e+002
5.4156875000e+009  5.821668e+000 -9.620727e+001 -2.869887e+001 -1.617720e+002  2.324098e+001  1.232829e+002 -1.017233e+001  1.349358e+002
5.4158125000e+009  5.809957e+000 -9.611676e+001 -2.821954e+001 -1.613505e+002  2.312162e+001  1.233732e+002 -1.038455e+001  1.365591e+002
5.4159375000e+009  5.904847e+000 -9.642477e+001 -2.882864e+001 -1.644958e+002  2.326061e+001  1.240229e+002 -1.015466e+001  1.369329e+002
5.4160625000e+009  5.957477e+000 -9.711002e+001 -2.850461e+001 -1.622706e+002  2.327154e+001  1.239081e+002 -1.011405e+001  1.368641e+002
5.4161875000e+009  5.940055e+000 -9.709411e+001 -2.844943e+001 -1.635771e+002  2.327163e+001  1.236778e+002 -1.017607e+001  1.362930e+002
5.4163125000e+009  5.627326e+000 -9.734618e+001 -2.844900e+001 -1.625905e+002  2.335812e+001  1.235788e+002 -1.015541e+001  1.374337e+002
5.4164375000e+009  5.652586e+000 -9.699165e+001 -2.843513e+001 -1.652496e+002  2.347731e+001  1.218333e+002 -9.827982e+000  1.336610e+002
5.4165625000e+009  6.030481e+000 -9.732677e+001 -2.874476e+001 -1.653265e+002  2.341631e+001  1.228032e+002 -9.993011e+000  1.350478e+002
5.4166875000e+009  5.815496e+000 -9.789948e+001 -2.901591e+001 -1.644458e+002  2.348122e+001  1.227720e+002 -9.970149e+000  1.357284e+002
5.4168125000e+009  5.526164e+000 -9.953741e+001 -2.892430e+001 -1.658840e+002  2.351423e+001  1.216724e+002 -9.989429e+000  1.339102e+002
5.4169375000e+009  5.721438e+000 -9.867075e+001 -2.875681e+001 -1.631129e+002  2.361614e+001  1.227141e+002 -9.870029e+000  1.357294e+002
5.4170625000e+009  5.657551e+000 -1.002381e+002 -2.883417e+001 -1.619530e+002  2.358655e+001  1.229573e+002 -1.000687e+001  1.368607e+002
5.4171875000e+009  5.610622e+000 -9.864474e+001 -2.842763e+001 -1.654188e+002  2.367550e+001  1.222449e+002 -9.657225e+000  1.358241e+002
5.4173125000e+009  5.715596e+000 -9.959422e+001 -2.850301e+001 -1.674355e+002  2.373009e+001  1.219959e+002 -9.684691e+000  1.345797e+002
5.4174375000e+009  5.490284e+000 -9.990358e+001 -2.914762e+001 -1.669205e+002  2.367487e+001  1.210283e+002 -9.904258e+000  1.336245e+002
5.4175625000e+009  5.430275e+000 -1.012172e+002 -2.875044e+001 -1.663370e+002  2.386583e+001  1.212270e+002 -9.542870e+000  1.346222e+002
5.4176875000e+009  5.713416e+000 -9.949522e+001 -2.853734e+001 -1.650293e+002  2.382931e+001  1.216178e+002 -9.580894e+000  1.349133e+002
5.4178125000e+009  5.510170e+000 -1.016385e+002 -2.878007e+001 -1.670596e+002  2.371976e+001  1.219467e+002 -9.924595e+000  1.357296e+002
5.4179375000e+009  5.432637e+000 -1.013848e+002 -2.830285e+001 -1.670105e+002  2.397519e+001  1.212713e+002 -9.347799e+000  1.351137e+002
5.4180625000e+009  5.658534e+000 -9.943421e+001 -2.850573e+001 -1.691183e+002  2.384542e+001  1.216676e+002 -9.500732e+000  1.357770e+002
5.4181875000e+009  4.999573e+000 -1.036746e+002 -2.868480e+001 -1.666875e+002  2.389073e+001  1.208985e+002 -9.757938e+000  1.354136e+002
5.4183125000e+009  5.228192e+000 -1.023826e+002 -2.870276e+001 -1.668962e+002  2.405380e+001  1.209148e+002 -9.391817e+000  1.350763e+002
5.4184375000e+009  5.390482e+000 -1.014274e+002 -2.882517e+001 -1.723048e+002  2.395878e+001  1.204181e+002 -9.502753e+000  1.336266e+002
5.4185625000e+009  5.293258e+000 -1.023595e+002 -2.947774e+001 -1.648576e+002  2.388317e+001  1.202803e+002 -9.871069e+000  1.345000e+002
5.4186875000e+009  5.214174e+000 -1.029756e+002 -2.916945e+001 -1.738208e+002  2.409975e+001  1.199076e+002 -9.306237e+000  1.333152e+002
5.4188125000e+009  5.532679e+000 -1.014530e+002 -2.873818e+001 -1.670319e+002  2.394092e+001  1.198185e+002 -9.604673e+000  1.338739e+002
5.4189375000e+009  5.434567e+000 -1.031305e+002 -2.882156e+001 -1.700489e+002  2.407492e+001  1.199688e+002 -9.431037e+000  1.341137e+002
5.4190625000e+009  5.231879e+000 -1.038930e+002 -2.952117e+001 -1.690583e+002  2.423140e+001  1.198429e+002 -9.284026e+000  1.341607e+002
5.4191875000e+009  5.055468e+000 -1.035055e+002 -2.863254e+001 -1.707414e+002  2.403944e+001  1.200292e+002 -9.556722e+000  1.349849e+002
5.4193125000e+009  5.157336e+000 -1.037503e+002 -2.891642e+001 -1.708604e+002  2.421810e+001  1.198699e+002 -9.341197e+000  1.342546e+002
5.4194375000e+009  5.076832e+000 -1.048543e+002 -2.953111e+001 -1.704172e+002  2.421042e+001  1.191873e+002 -9.436299e+000  1.337857e+002
5.4195625000e+009  5.179922e+000 -1.041359e+002 -2.887693e+001 -1.689100e+002  2.410764e+001  1.188159e+002 -9.539688e+000  1.335299e+002
5.4196875000e+009  5.186005e+000 -1.052568e+002 -2.850815e+001 -1.731079e+002  2.428522e+001  1.187747e+002 -9.243083e+000  1.331759e+002
5.4198125000e+009  5.082542e+000 -1.045967e+002 -2.964411e+001 -1.725741e+002  2.426721e+001  1.186215e+002 -9.325890e+000  1.333772e+002
5.4199375000e+009  5.135055e+000 -1.044272e+002 -2.897397e+001 -1.736075e+002  2.434617e+001  1.185008e+002 -9.161105e+000  1.332663e+002
5.4200625000e+009  5.057987e+000 -1.057212e+002 -2.857185e+001 -1.710241e+002  2.434297e+001  1.186957e+002 -9.120274e+000  1.346008e+002
5.4201875000e+009  5.055118e+000 -1.056618e+002 -2.912170e+001 -1.743827e+002  2.449489e+001  1.181825e+002 -8.915088e+000  1.336044e+002
5.4203125000e+009  5.123890e+000 -1.055236e+002 -2.899405e+001 -1.761076e+002  2.437861e+001  1.188562e+002 -9.236834e+000  1.335363e+002
5.4204375000e+009  4.974311e+000 -1.061045e+002 -2.883185e+001 -1.707271e+002  2.451130e+001  1.178288e+002 -9.021049e+000  1.332440e+002
5.4205625000e+009  4.910123e+000 -1.067824e+002 -2.921820e+001 -1.735346e+002  2.453016e+001  1.180382e+002 -8.997624e+000  1.342092e+002
5.4206875000e+009  5.073512e+000 -1.063607e+002 -2.979575e+001 -1.748253e+002  2.463667e+001  1.175929e+002 -8.907108e+000  1.329048e+002
5.4208125000e+009  4.966545e+000 -1.072083e+002 -2.898544e+001 -1.701651e+002  2.450573e+001  1.172818e+002 -9.159524e+000  1.330784e+002
5.4209375000e+009  5.024881e+000 -1.066007e+002 -2.923610e+001 -1.734782e+002  2.458277e+001  1.176428e+002 -8.977907e+000  1.335711e+002
5.4210625000e+009  5.002212e+000 -1.062489e+002 -2.943932e+001 -1.725990e+002  2.460597e+001  1.161296e+002 -8.981660e+000  1.318945e+002
5.4211875000e+009  4.847839e+000 -1.069228e+002 -2.939757e+001 -1.735838e+002  2.466326e+001  1.160464e+002 -8.913244e+000  1.314094e+002
5.4213125000e+009  4.876513e+000 -1.073381e+002 -2.949566e+001 -1.730007e+002  2.456693e+001  1.160400e+002 -9.121263e+000  1.319427e+002
5.4214375000e+009  4.846061e+000 -1.069105e+002 -2.972875e+001 -1.733004e+002  2.478039e+001  1.162930e+002 -8.792043e+000  1.326597e+002
5.4215625000e+009  4.760041e+000 -1.087047e+002 -2.869442e+001 -1.702127e+002  2.458143e+001  1.157171e+002 -9.041667e+000  1.326285e+002
5.4216875000e+009  4.871014e+000 -1.082131e+002 -2.931398e+001 -1.749771e+002  2.473710e+001  1.167762e+002 -8.817007e+000  1.334343e+002
5.4218125000e+009  4.943017e+000 -1.069760e+002 -2.932926e+001 -1.763732e+002  2.474462e+001  1.165403e+002 -8.742916e+000  1.336019e+002
5.4219375000e+009  4.780719e+000 -1.090994e+002 -2.951751e+001 -1.749117e+002  2.471085e+001  1.162090e+002 -8.982885e+000  1.332480e+002
5.4220625000e+009  4.773914e+000 -1.090764e+002 -2.994074e+001 -1.730613e+002  2.470935e+001  1.149082e+002 -9.022105e+000  1.317100e+002
5.4221875000e+009  4.755939e+000 -1.085926e+002 -2.921352e+001 -1.733082e+002  2.485440e+001  1.154393e+002 -8.701401e+000  1.329835e+002
5.4223125000e+009  4.797266e+000 -1.085177e+002 -2.927623e+001 -1.780689e+002  2.479999e+001  1.142475e+002 -8.801334e+000  1.307543e+002
5.4224375000e+009  4.692509e+000 -1.090842e+002 -2.921366e+001 -1.780356e+002  2.485852e+001  1.153395e+002 -8.656180e+000  1.330686e+002
5.4225625000e+009  4.715068e+000 -1.087915e+002 -2.938522e+001 -1.799718e+002  2.492843e+001  1.148746e+002 -8.582403e+000  1.319106e+002
5.4226875000e+009  4.676870e+000 -1.100643e+002 -2.932850e+001 -1.768883e+002  2.490214e+001  1.139726e+002 -8.680255e+000  1.312216e+002
5.4228125000e+009  4.659742e+000 -1.095921e+002 -2.931479e+001 -1.796225e+002  2.498937e+001  1.142781e+002 -8.554115e+000  1.319023e+002
5.4229375000e+009  4.664105e+000 -1.094834e+002 -2.939095e+001  1.796761e+002  2.505960e+001  1.145204e+002 -8.413987e+000  1.322867e+002
5.4230625000e+009  4.654304e+000 -1.108014e+002 -2.964527e+001  1.786286e+002  2.495413e+001  1.138040e+002 -8.624007e+000  1.316700e+002
5.4231875000e+009  4.662609e+000 -1.100470e+002 -2.953559e+001  1.761899e+002  2.502636e+001  1.138630e+002 -8.525425e+000  1.313678e+002
5.4233125000e+009  4.624627e+000 -1.105024e+002 -2.946513e+001 -1.751478e+002  2.502772e+001  1.137052e+002 -8.506759e+000  1.325584e+002
5.4234375000e+009  4.568842e+000 -1.106320e+002 -2.894531e+001 -1.791845e+002  2.497385e+001  1.130522e+002 -8.563636e+000  1.312545e+002
5.4235625000e+009  4.521193e+000 -1.114035e+002 -3.020239e+001 -1.790610e+002  2.512814e+001  1.128993e+002 -8.505449e+000  1.310488e+002
5.4236875000e+009  4.534709e+000 -1.111091e+002 -2.976097e+001  1.761666e+002  2.530987e+001  1.136129e+002 -8.080172e+000  1.322589e+002
5.4238125000e+009  4.473422e+000 -1.114173e+002 -2.975398e+001 -1.792436e+002  2.511598e+001  1.128783e+002 -8.421034e+000  1.321005e+002
5.4239375000e+009  4.474387e+000 -1.115584e+002 -3.021897e+001 -1.754381e+002  2.513774e+001  1.119669e+002 -8.505145e+000  1.308513e+002
5.4240625000e+009  4.434712e+000 -1.115709e+002 -2.968685e+001  1.792944e+002  2.523169e+001  1.127538e+002 -8.267485e+000  1.319475e+002
5.4241875000e+009  4.448758e+000 -1.119373e+002 -2.975445e+001  1.763551e+002  2.517233e+001  1.121516e+002 -8.367453e+000  1.310985e+002
5.4243125000e+009  4.409078e+000 -1.121789e+002 -3.028211e+001  1.755904e+002  2.531691e+001  1.126697e+002 -8.217024e+000  1.321034e+002
5.4244375000e+009  4.378910e+000 -1.120495e+002 -2.938153e+001  1.780524e+002  2.535277e+001  1.116951e+002 -8.079658e+000  1.311980e+002
5.4245625000e+009  4.414387e+000 -1.125086e+002 -2.959828e+001  1.773683e+002  2.523631e+001  1.107656e+002 -8.285831e+000  1.298628e+002
5.4246875000e+009  4.340752e+000 -1.125771e+002 -2.973226e+001 -1.793679e+002  2.528948e+001  1.110662e+002 -8.232992e+000  1.310289e+002
5.4248125000e+009  4.327794e+000 -1.121809e+002 -2.999660e+001  1.755173e+002  2.537151e+001  1.117161e+002 -8.111189e+000  1.322037e+002
5.4249375000e+009  4.309731e+000 -1.128029e+002 -2.989799e+001  1.756058e+002  2.536127e+001  1.107638e+002 -8.078079e+000  1.309353e+002
5.4250625000e+009  4.299406e+000 -1.131282e+002 -2.995466e+001  1.744971e+002  2.538604e+001  1.110224e+002 -8.105765e+000  1.317191e+002
5.4251875000e+009  4.274961e+000 -1.133116e+002 -2.970847e+001  1.771424e+002  2.541315e+001  1.105347e+002 -8.047862e+000  1.311770e+002
5.4253125000e+009  4.219672e+000 -1.134751e+002 -2.969266e+001  1.752454e+002  2.542551e+001  1.103660e+002 -8.056787e+000  1.312992e+002
5.4254375000e+009  4.212479e+000 -1.135699e+002 -3.042802e+001  1.733298e+002  2.544737e+001  1.100850e+002 -8.110893e+000  1.309044e+002
5.4255625000e+009  4.119236e+000 -1.136673e+002 -3.030891e+001  1.748450e+002  2.547463e+001  1.102746e+002 -8.074229e+000  1.317370e+002
5.4256875000e+009  4.078303e+000 -1.141104e+002 -2.928119e+001  1.745849e+002  2.551427e+001  1.090908e+002 -8.030156e+000  1.301436e+002
5.4258125000e+009  3.986433e+000 -1.142393e+002 -3.007170e+001  1.763102e+002  2.551155e+001  1.089996e+002 -8.084873e+000  1.308161e+002
5.4259375000e+009  3.946167e+000 -1.145007e+002 -2.995872e+001  1.772963e+002  2.553190e+001  1.088111e+002 -8.141698e+000  1.309689e+002
5.4260625000e+009  3.904258e+000 -1.143563e+002 -2.981926e+001  1.727417e+002  2.560854e+001  1.087998e+002 -8.001535e+000  1.309179e+002
5.4261875000e+009  3.822460e+000 -1.152940e+002 -3.064205e+001  1.799683e+002  2.563119e+001  1.084789e+002 -8.101357e+000  1.315051e+002
5.4263125000e+009  3.896639e+000 -1.147360e+002 -3.063569e+001  1.706476e+002  2.567178e+001  1.087603e+002 -7.996392e+000  1.317332e+002
5.4264375000e+009  3.766414e+000 -1.152852e+002 -3.017294e+001 -1.793565e+002  2.567041e+001  1.080944e+002 -8.065406e+000  1.317757e+002
5.4265625000e+009  3.827153e+000 -1.157007e+002 -3.106238e+001  1.729501e+002  2.572600e+001  1.081769e+002 -8.037375e+000  1.315479e+002
5.4266875000e+009  3.661965e+000 -1.159701e+002 -3.084253e+001  1.758571e+002  2.568168e+001  1.085391e+002 -8.076313e+000  1.334114e+002
5.4268125000e+009  3.617393e+000 -1.159923e+002 -2.978414e+001  1.742465e+002  2.577075e+001  1.074476e+002 -7.957289e+000  1.311859e+002
5.4269375000e+009  3.594994e+000 -1.161944e+002 -3.055108e+001  1.719432e+002  2.578790e+001  1.080298e+002 -7.949280e+000  1.330341e+002
5.4270625000e+009  3.530262e+000 -1.163649e+002 -3.095906e+001  1.762122e+002  2.583232e+001  1.074133e+002 -7.987814e+000  1.324828e+002
5.4271875000e+009  3.535835e+000 -1.164045e+002 -3.073204e+001  1.760149e+002  2.581066e+001  1.067844e+002 -8.074381e+000  1.319455e+002
5.4273125000e+009  3.445875e+000 -1.166990e+002 -3.053125e+001  1.720624e+002  2.585732e+001  1.066612e+002 -8.046261e+000  1.316099e+002
5.4274375000e+009  3.499058e+000 -1.173923e+002 -3.069501e+001  1.705590e+002  2.586435e+001  1.068963e+002 -8.002888e+000  1.327879e+002
5.4275625000e+009  3.463242e+000 -1.177393e+002 -3.099082e+001  1.740712e+002  2.588927e+001  1.055577e+002 -8.157282e+000  1.313300e+002
5.4276875000e+009  3.339971e+000 -1.169636e+002 -3.079539e+001  1.750680e+002  2.595080e+001  1.051202e+002 -8.027311e+000  1.305335e+002
5.4278125000e+009  3.354706e+000 -1.177779e+002 -3.042376e+001  1.732370e+002  2.596911e+001  1.060108e+002 -7.971886e+000  1.323160e+002
5.4279375000e+009  3.270329e+000 -1.184296e+002 -3.099281e+001  1.745889e+002  2.600436e+001  1.050922e+002 -7.966306e+000  1.317251e+002
5.4280625000e+009  3.196648e+000 -1.177992e+002 -3.079775e+001  1.743549e+002  2.600607e+001  1.048163e+002 -8.013502e+000  1.316905e+002
5.4281875000e+009  3.181996e+000 -1.179965e+002 -3.052118e+001  1.727854e+002  2.598522e+001  1.051573e+002 -7.988092e+000  1.333170e+002
5.4283125000e+009  3.135228e+000 -1.181821e+002 -3.088688e+001  1.741066e+002  2.605983e+001  1.039138e+002 -8.005399e+000  1.308614e+002
5.4284375000e+009  3.029351e+000 -1.188439e+002 -3.051711e+001  1.733612e+002  2.602129e+001  1.042030e+002 -8.036804e+000  1.325409e+002
5.4285625000e+009  3.161454e+000 -1.191547e+002 -3.080104e+001  1.727569e+002  2.606736e+001  1.043066e+002 -8.086922e+000  1.334233e+002
5.4286875000e+009  3.040719e+000 -1.190059e+002 -3.117813e+001  1.737574e+002  2.608338e+001  1.034995e+002 -8.030791e+000  1.323921e+002
5.4288125000e+009  2.889283e+000 -1.181140e+002 -3.040152e+001  1.714099e+002  2.610886e+001  1.035561e+002 -8.065742e+000  1.317819e+002
5.4289375000e+009  2.952986e+000 -1.196491e+002 -3.072452e+001  1.731909e+002  2.611017e+001  1.031786e+002 -8.007160e+000  1.324634e+002
5.4290625000e+009  2.901586e+000 -1.201201e+002 -3.144157e+001  1.722137e+002  2.615300e+001  1.026736e+002 -8.048309e+000  1.325691e+002
5.4291875000e+009  2.783098e+000 -1.197810e+002 -3.049498e+001  1.725140e+002  2.618276e+001  1.026383e+002 -8.024611e+000  1.323714e+002
5.4293125000e+009  2.833644e+000 -1.204174e+002 -3.100808e+001  1.728709e+002  2.623522e+001  1.022083e+002 -8.088539e+000  1.325143e+002
5.4294375000e+009  2.710830e+000 -1.206346e+002 -3.108714e+001  1.718847e+002  2.619246e+001  1.019323e+002 -8.016449e+000  1.325780e+002
5.4295625000e+009  2.623397e+000 -1.206786e+002 -3.114468e+001  1.685565e+002  2.620848e+001  1.016772e+002 -8.126245e+000  1.323765e+002
5.4296875000e+009  2.653730e+000 -1.203445e+002 -3.130685e+001  1.692390e+002  2.620584e+001  1.017317e+002 -8.130498e+000  1.329842e+002
5.4298125000e+009  2.682133e+000 -1.209657e+002 -3.101105e+001  1.718384e+002  2.630871e+001  1.011537e+002 -8.130926e+000  1.319620e+002
5.4299375000e+009  2.608881e+000 -1.212982e+002 -3.139528e+001  1.706806e+002  2.622275e+001  1.008697e+002 -8.149065e+000  1.332353e+002
5.4300625000e+009  2.567332e+000 -1.211172e+002 -3.040017e+001  1.687968e+002  2.626764e+001  1.005934e+002 -8.174118e+000  1.324198e+002
5.4301875000e+009  2.547687e+000 -1.219194e+002 -3.129694e+001  1.739863e+002  2.630885e+001  1.003171e+002 -8.086500e+000  1.329395e+002
5.4303125000e+009  2.409772e+000 -1.214801e+002 -3.152896e+001  1.711008e+002  2.634018e+001  9.978625e+001 -8.098699e+000  1.323123e+002
5.4304375000e+009  2.472796e+000 -1.218905e+002 -3.080276e+001  1.691049e+002  2.631777e+001  9.980335e+001 -8.121596e+000  1.330420e+002
5.4305625000e+009  2.506492e+000 -1.222097e+002 -3.159069e+001  1.694236e+002  2.632571e+001  9.926145e+001 -8.163486e+000  1.332544e+002
5.4306875000e+009  2.369452e+000 -1.226204e+002 -3.155994e+001  1.715815e+002  2.639983e+001  9.886890e+001 -8.105057e+000  1.324967e+002
5.4308125000e+009  2.364138e+000 -1.226305e+002 -3.116628e+001  1.730544e+002  2.635324e+001  9.890484e+001 -8.162330e+000  1.338392e+002
5.4309375000e+009  2.303506e+000 -1.228119e+002 -3.119321e+001  1.745985e+002  2.636553e+001  9.835617e+001 -8.087055e+000  1.332854e+002
5.4310625000e+009  2.334407e+000 -1.232508e+002 -3.123605e+001  1.652100e+002  2.638149e+001  9.822530e+001 -8.186870e+000  1.328798e+002
5.4311875000e+009  2.251580e+000 -1.235020e+002 -3.137582e+001  1.681116e+002  2.641127e+001  9.812242e+001 -8.265055e+000  1.334600e+002
5.4313125000e+009  2.270210e+000 -1.235683e+002 -3.123545e+001  1.701703e+002  2.648172e+001  9.762960e+001 -8.143387e+000  1.331087e+002
5.4314375000e+009  2.263284e+000 -1.238989e+002 -3.162520e+001  1.666695e+002  2.640745e+001  9.731359e+001 -8.217531e+000  1.337657e+002
5.4315625000e+009  2.087035e+000 -1.239051e+002 -3.145618e+001  1.691281e+002  2.646415e+001  9.722483e+001 -8.193923e+000  1.336118e+002
5.4316875000e+009  2.087008e+000 -1.235409e+002 -3.130689e+001  1.669574e+002  2.645526e+001  9.639290e+001 -8.281502e+000  1.330827e+002
5.4318125000e+009  1.990537e+000 -1.241738e+002 -3.132582e+001  1.715008e+002  2.648239e+001  9.608529e+001 -8.159534e+000  1.331969e+002
5.4319375000e+009  2.031040e+000 -1.246534e+002 -3.185663e+001  1.668653e+002  2.645051e+001  9.660095e+001 -8.241597e+000  1.342319e+002
5.4320625000e+009  1.921477e+000 -1.252885e+002 -3.152584e+001  1.685779e+002  2.650188e+001  9.622846e+001 -8.244734e+000  1.340586e+002
5.4321875000e+009  1.913563e+000 -1.248562e+002 -3.116797e+001  1.690322e+002  2.650769e+001  9.567796e+001 -8.236094e+000  1.339102e+002
5.4323125000e+009  1.935191e+000 -1.251639e+002 -3.155602e+001  1.686673e+002  2.655940e+001  9.525772e+001 -8.226147e+000  1.342066e+002
5.4324375000e+009  1.880149e+000 -1.258513e+002 -3.163139e+001  1.683217e+002  2.657772e+001  9.492611e+001 -8.249855e+000  1.342063e+002
5.4325625000e+009  1.612537e+000 -1.255396e+002 -3.153138e+001  1.675264e+002  2.652877e+001  9.476134e+001 -8.182508e+000  1.344787e+002
5.4326875000e+009  1.803130e+000 -1.256686e+002 -3.171518e+001  1.670493e+002  2.653098e+001  9.431260e+001 -8.309411e+000  1.343434e+002
5.4328125000e+009  1.759301e+000 -1.258452e+002 -3.157742e+001  1.702336e+002  2.659347e+001  9.431805e+001 -8.237518e+000  1.340779e+002
5.4329375000e+009  1.647490e+000 -1.260057e+002 -3.192583e+001  1.677910e+002  2.656713e+001  9.371574e+001 -8.242594e+000  1.342630e+002
5.4330625000e+009  1.601955e+000 -1.264581e+002 -3.237271e+001  1.677439e+002  2.661141e+001  9.320337e+001 -8.290223e+000  1.346626e+002
5.4331875000e+009  1.692480e+000 -1.261953e+002 -3.176103e+001  1.657560e+002  2.661455e+001  9.310560e+001 -8.341579e+000  1.343089e+002
5.4333125000e+009  1.504854e+000 -1.264320e+002 -3.157040e+001  1.706329e+002  2.655854e+001  9.281586e+001 -8.246175e+000  1.341490e+002
5.4334375000e+009  1.583316e+000 -1.263817e+002 -3.143055e+001  1.690876e+002  2.665883e+001  9.260148e+001 -8.242460e+000  1.345555e+002
5.4335625000e+009  1.603435e+000 -1.269283e+002 -3.163582e+001  1.679572e+002  2.667274e+001  9.204180e+001 -8.261125e+000  1.345944e+002
5.4336875000e+009  1.352851e+000 -1.281991e+002 -3.218164e+001  1.675723e+002  2.664690e+001  9.255624e+001 -8.208662e+000  1.347530e+002
5.4338125000e+009  1.482864e+000 -1.277586e+002 -3.245749e+001  1.630895e+002  2.669298e+001  9.200429e+001 -8.293979e+000  1.353000e+002
5.4339375000e+009  1.519221e+000 -1.277828e+002 -3.208826e+001  1.641945e+002  2.664703e+001  9.208850e+001 -8.238023e+000  1.356083e+002
5.4340625000e+009  1.369273e+000 -1.279809e+002 -3.219410e+001  1.676427e+002  2.676662e+001  9.139223e+001 -8.190006e+000  1.348461e+002
5.4341875000e+009  1.350745e+000 -1.278965e+002 -3.188275e+001  1.690058e+002  2.663253e+001  9.122902e+001 -8.320045e+000  1.355983e+002
5.4343125000e+009  1.389954e+000 -1.278372e+002 -3.199322e+001  1.669845e+002  2.668660e+001  9.033311e+001 -8.335838e+000  1.349680e+002
5.4344375000e+009  1.218998e+000 -1.289098e+002 -3.228416e+001  1.643813e+002  2.669594e+001  9.101404e+001 -8.260442e+000  1.361664e+002
5.4345625000e+009  1.269175e+000 -1.283481e+002 -3.212471e+001  1.657341e+002  2.673886e+001  9.005858e+001 -8.248954e+000  1.357009e+002
5.4346875000e+009  1.205404e+000 -1.283344e+002 -3.134641e+001  1.665420e+002  2.667744e+001  8.931400e+001 -8.407290e+000  1.348810e+002
5.4348125000e+009  1.109647e+000 -1.292013e+002 -3.255799e+001  1.642792e+002  2.671243e+001  8.962346e+001 -8.235898e+000  1.357457e+002
5.4349375000e+009  1.130978e+000 -1.294355e+002 -3.259705e+001  1.657758e+002  2.672041e+001  8.899961e+001 -8.299734e+000  1.358813e+002
5.4350625000e+009  1.070756e+000 -1.293923e+002 -3.202476e+001  1.651145e+002  2.665403e+001  8.930479e+001 -8.347075e+000  1.362115e+002
5.4351875000e+009  1.014539e+000 -1.299299e+002 -3.216000e+001  1.673014e+002  2.669603e+001  8.751598e+001 -8.339527e+000  1.349953e+002
5.4353125000e+009  1.050295e+000 -1.296671e+002 -3.239400e+001  1.639349e+002  2.673181e+001  8.816905e+001 -8.302753e+000  1.357931e+002
5.4354375000e+009  9.941025e-001 -1.298224e+002 -3.175452e+001  1.647950e+002  2.670807e+001  8.828791e+001 -8.314494e+000  1.361028e+002
5.4355625000e+009  8.527098e-001 -1.301324e+002 -3.229081e+001  1.718239e+002  2.667762e+001  8.788877e+001 -8.297066e+000  1.359303e+002
5.4356875000e+009  9.460942e-001 -1.302309e+002 -3.263914e+001  1.629048e+002  2.676556e+001  8.751436e+001 -8.338153e+000  1.365619e+002
5.4358125000e+009  9.262002e-001 -1.301741e+002 -3.239386e+001  1.634787e+002  2.670537e+001  8.761380e+001 -8.295409e+000  1.371281e+002
5.4359375000e+009  8.455145e-001 -1.306460e+002 -3.174685e+001  1.628199e+002  2.678900e+001  8.736655e+001 -8.240172e+000  1.361613e+002
5.4360625000e+009  8.334371e-001 -1.308773e+002 -3.226438e+001  1.658932e+002  2.701805e+001  8.589998e+001 -8.107697e+000  1.348457e+002
5.4361875000e+009  7.741994e-001 -1.307683e+002 -3.250701e+001  1.670065e+002  2.677126e+001  8.600891e+001 -8.332850e+000  1.359745e+002
5.4363125000e+009  7.151327e-001 -1.314632e+002 -3.233703e+001  1.651411e+002  2.674464e+001  8.525446e+001 -8.318540e+000  1.353218e+002
5.4364375000e+009  6.767638e-001 -1.317251e+002 -3.303950e+001  1.640542e+002  2.687363e+001  8.538559e+001 -8.197646e+000  1.360447e+002
5.4365625000e+009  6.713302e-001 -1.314174e+002 -3.246840e+001  1.666410e+002  2.697441e+001  8.478860e+001 -8.116100e+000  1.352362e+002
5.4366875000e+009  6.676431e-001 -1.318554e+002 -3.226949e+001  1.585975e+002  2.690981e+001  8.521278e+001 -8.187005e+000  1.363248e+002
5.4368125000e+009  6.450120e-001 -1.316474e+002 -3.246315e+001  1.622196e+002  2.694777e+001  8.493272e+001 -8.104229e+000  1.363930e+002
5.4369375000e+009  5.782305e-001 -1.318263e+002 -3.238791e+001  1.632926e+002  2.684335e+001  8.477957e+001 -8.218931e+000  1.370217e+002
5.4370625000e+009  4.608298e-001 -1.325992e+002 -3.312884e+001  1.638330e+002  2.677324e+001  8.483248e+001 -8.204492e+000  1.373682e+002
5.4371875000e+009  4.917387e-001 -1.321321e+002 -3.218035e+001  1.642360e+002  2.687358e+001  8.397014e+001 -8.249314e+000  1.365929e+002
5.4373125000e+009  4.948882e-001 -1.323708e+002 -3.217518e+001  1.584295e+002  2.685489e+001  8.360755e+001 -8.223738e+000  1.368504e+002
5.4374375000e+009  3.908640e-001 -1.328158e+002 -3.253251e+001  1.635984e+002  2.688153e+001  8.263094e+001 -8.302355e+000  1.351101e+002
5.4375625000e+009  3.553447e-001 -1.324966e+002 -3.204597e+001  1.651221e+002  2.683743e+001  8.284563e+001 -8.210586e+000  1.363567e+002
5.4376875000e+009  3.497234e-001 -1.331114e+002 -3.244478e+001  1.628871e+002  2.675103e+001  8.223356e+001 -8.377934e+000  1.363044e+002
5.4378125000e+009  2.814653e-001 -1.335413e+002 -3.371138e+001  1.645510e+002  2.677946e+001  8.294995e+001 -8.140006e+000  1.371668e+002
5.4379375000e+009  2.814057e-001 -1.332998e+002 -3.283950e+001  1.658884e+002  2.696710e+001  8.257185e+001 -8.027376e+000  1.366823e+002
5.4380625000e+009  2.629933e-001 -1.337941e+002 -3.256097e+001  1.644004e+002  2.682541e+001  8.175574e+001 -8.287450e+000  1.362186e+002
5.4381875000e+009  2.476405e-001 -1.341971e+002 -3.253363e+001  1.612567e+002  2.677734e+001  8.175223e+001 -8.309734e+000  1.371846e+002
5.4383125000e+009  2.309391e-001 -1.345943e+002 -3.260519e+001  1.603972e+002  2.672635e+001  8.092145e+001 -8.477830e+000  1.369248e+002
5.4384375000e+009  2.260953e-001 -1.344235e+002 -3.223551e+001  1.616354e+002  2.692241e+001  8.187349e+001 -8.122742e+000  1.378883e+002
5.4385625000e+009  1.870996e-001 -1.349428e+002 -3.252296e+001  1.602056e+002  2.679400e+001  8.073911e+001 -8.346147e+000  1.369215e+002
5.4386875000e+009  1.990965e-001 -1.350786e+002 -3.231011e+001  1.608219e+002  2.681861e+001  8.058723e+001 -8.270925e+000  1.368875e+002
5.4388125000e+009  1.603801e-001 -1.353195e+002 -3.237622e+001  1.630368e+002  2.687670e+001  7.983002e+001 -8.391533e+000  1.357204e+002
5.4389375000e+009  1.266500e-001 -1.360083e+002 -3.285016e+001  1.631500e+002  2.673547e+001  7.917529e+001 -8.498691e+000  1.359344e+002
5.4390625000e+009  5.798593e-002 -1.361006e+002 -3.297111e+001  1.628580e+002  2.676401e+001  7.956565e+001 -8.424300e+000  1.364586e+002
5.4391875000e+009  1.276162e-001 -1.363427e+002 -3.228798e+001  1.578349e+002  2.683291e+001  8.002002e+001 -8.281790e+000  1.381191e+002
5.4393125000e+009  1.679527e-002 -1.366882e+002 -3.260751e+001  1.633395e+002  2.666319e+001  7.751621e+001 -8.725858e+000  1.347623e+002
5.4394375000e+009  2.260514e-002 -1.370126e+002 -3.261565e+001  1.619469e+002  2.684560e+001  7.897791e+001 -8.348641e+000  1.367531e+002
5.4395625000e+009  1.289386e-002 -1.372805e+002 -3.335267e+001  1.595661e+002  2.673779e+001  7.862279e+001 -8.463579e+000  1.377151e+002
5.4396875000e+009  1.853465e-002 -1.377021e+002 -3.257311e+001  1.558584e+002  2.689238e+001  7.795641e+001 -8.248360e+000  1.363455e+002
5.4398125000e+009  1.662860e-002 -1.375001e+002 -3.230685e+001  1.562997e+002  2.669476e+001  7.805448e+001 -8.664933e+000  1.384635e+002
5.4399375000e+009 -4.753628e-002 -1.378619e+002 -3.242577e+001  1.609370e+002  2.675237e+001  7.734943e+001 -8.585281e+000  1.363120e+002
5.4400625000e+009 -8.378790e-002 -1.383129e+002 -3.297825e+001  1.566257e+002  2.675063e+001  7.617599e+001 -8.596054e+000  1.353751e+002
5.4401875000e+009 -1.021990e-001 -1.384327e+002 -3.266588e+001  1.627437e+002  2.678869e+001  7.641196e+001 -8.530680e+000  1.352337e+002
5.4403125000e+009 -1.328035e-001 -1.387538e+002 -3.272616e+001  1.640984e+002  2.681911e+001  7.679813e+001 -8.383439e+000  1.362248e+002
5.4404375000e+009 -1.415099e-001 -1.391810e+002 -3.279281e+001  1.560233e+002  2.669744e+001  7.501492e+001 -8.759035e+000  1.356018e+002
5.4405625000e+009 -1.987838e-001 -1.390249e+002 -3.279259e+001  1.565085e+002  2.669608e+001  7.599433e+001 -8.513251e+000  1.373446e+002
5.4406875000e+009 -2.185328e-001 -1.394925e+002 -3.316110e+001  1.653288e+002  2.669631e+001  7.547691e+001 -8.606461e+000  1.359200e+002
5.4408125000e+009 -1.695108e-001 -1.402489e+002 -3.303762e+001  1.593203e+002  2.677916e+001  7.424649e+001 -8.518679e+000  1.343503e+002
5.4409375000e+009 -2.529701e-001 -1.397885e+002 -3.294780e+001  1.598351e+002  2.670203e+001  7.494254e+001 -8.529411e+000  1.361339e+002
5.4410625000e+009 -1.706151e-001 -1.407392e+002 -3.268597e+001  1.588744e+002  2.674119e+001  7.452237e+001 -8.550698e+000  1.355718e+002
5.4411875000e+009 -2.518599e-001 -1.406780e+002 -3.271559e+001  1.542482e+002  2.666015e+001  7.329296e+001 -8.703081e+000  1.354366e+002
5.4413125000e+009 -3.136617e-001 -1.408160e+002 -3.317539e+001  1.582386e+002  2.671739e+001  7.382905e+001 -8.576106e+000  1.354261e+002
5.4414375000e+009 -2.565423e-001 -1.409299e+002 -3.209592e+001  1.581481e+002  2.669627e+001  7.322109e+001 -8.720998e+000  1.351319e+002
5.4415625000e+009 -3.453698e-001 -1.412800e+002 -3.276734e+001  1.581178e+002  2.669468e+001  7.155035e+001 -8.744428e+000  1.323105e+002
5.4416875000e+009 -3.573714e-001 -1.412561e+002 -3.317341e+001  1.592365e+002  2.670077e+001  7.253496e+001 -8.660887e+000  1.339120e+002
5.4418125000e+009 -2.964541e-001 -1.417888e+002 -3.213852e+001  1.566288e+002  2.668429e+001  7.211210e+001 -8.792789e+000  1.350405e+002
5.4419375000e+009 -4.366130e-001 -1.420717e+002 -3.250539e+001  1.525620e+002  2.661249e+001  7.123198e+001 -8.841094e+000  1.340865e+002
5.4420625000e+009 -4.580457e-001 -1.423153e+002 -3.296230e+001  1.590901e+002  2.672031e+001  7.209589e+001 -8.453481e+000  1.347173e+002
5.4421875000e+009 -4.340394e-001 -1.424738e+002 -3.347776e+001  1.604840e+002  2.669699e+001  7.159604e+001 -8.505030e+000  1.342972e+002
5.4423125000e+009 -4.666145e-001 -1.426542e+002 -3.283299e+001  1.557023e+002  2.670192e+001  6.981490e+001 -8.844383e+000  1.311620e+002
5.4424375000e+009 -4.812347e-001 -1.429860e+002 -3.251433e+001  1.546844e+002  2.652071e+001  7.036497e+001 -9.037278e+000  1.340174e+002
5.4425625000e+009 -4.371946e-001 -1.433162e+002 -3.265001e+001  1.566591e+002  2.658406e+001  7.014645e+001 -8.888679e+000  1.340845e+002
5.4426875000e+009 -4.686621e-001 -1.433746e+002 -3.221064e+001  1.557842e+002  2.670920e+001  6.898618e+001 -8.764293e+000  1.315742e+002
5.4428125000e+009 -5.515081e-001 -1.435498e+002 -3.256137e+001  1.585452e+002  2.659697e+001  6.991647e+001 -8.845860e+000  1.348482e+002
5.4429375000e+009 -5.990678e-001 -1.441521e+002 -3.311475e+001  1.536701e+002  2.662363e+001  6.897446e+001 -8.788941e+000  1.331813e+002
5.4430625000e+009 -6.132941e-001 -1.440249e+002 -3.255763e+001  1.561496e+002  2.666203e+001  6.864300e+001 -8.722801e+000  1.320183e+002
5.4431875000e+009 -5.678515e-001 -1.447169e+002 -3.333782e+001  1.553628e+002  2.653107e+001  6.934266e+001 -8.668424e+000  1.350370e+002
5.4433125000e+009 -6.143576e-001 -1.447703e+002 -3.259952e+001  1.530368e+002  2.660292e+001  6.872521e+001 -8.717317e+000  1.341763e+002
5.4434375000e+009 -5.727757e-001 -1.451829e+002 -3.274183e+001  1.532874e+002  2.660106e+001  6.776804e+001 -8.728235e+000  1.329309e+002
5.4435625000e+009 -6.967179e-001 -1.449997e+002 -3.222677e+001  1.540315e+002  2.658251e+001  6.715701e+001 -8.921181e+000  1.309214e+002
5.4436875000e+009 -5.226882e-001 -1.458056e+002 -3.229581e+001  1.548176e+002  2.656219e+001  6.793170e+001 -8.774641e+000  1.338756e+002
5.4438125000e+009 -7.450434e-001 -1.454039e+002 -3.250286e+001  1.579992e+002  2.650662e+001  6.655923e+001 -9.105548e+000  1.312283e+002
5.4439375000e+009 -7.367616e-001 -1.456672e+002 -3.283419e+001  1.558878e+002  2.656709e+001  6.689937e+001 -8.713380e+000  1.326092e+002
5.4440625000e+009 -7.017152e-001 -1.463592e+002 -3.316092e+001  1.519592e+002  2.650064e+001  6.648386e+001 -8.900042e+000  1.323610e+002
5.4441875000e+009 -8.204053e-001 -1.463255e+002 -3.308770e+001  1.566053e+002  2.650186e+001  6.488622e+001 -9.125321e+000  1.284587e+002
5.4443125000e+009 -8.087173e-001 -1.463174e+002 -3.249187e+001  1.545569e+002  2.649180e+001  6.520341e+001 -9.108428e+000  1.301935e+002
5.4444375000e+009 -7.606740e-001 -1.471537e+002 -3.272203e+001  1.526619e+002  2.647822e+001  6.536115e+001 -9.054281e+000  1.317116e+002
5.4445625000e+009 -8.710497e-001 -1.466219e+002 -3.284998e+001  1.555059e+002  2.651203e+001  6.428651e+001 -9.039583e+000  1.291999e+002
5.4446875000e+009 -8.273152e-001 -1.475576e+002 -3.295306e+001  1.488464e+002  2.646165e+001  6.469253e+001 -8.938483e+000  1.315580e+002
5.4448125000e+009 -7.222897e-001 -1.474234e+002 -3.234464e+001  1.556089e+002  2.646531e+001  6.455885e+001 -8.873380e+000  1.320304e+002
5.4449375000e+009 -8.543290e-001 -1.474004e+002 -3.259796e+001  1.588550e+002  2.646116e+001  6.342160e+001 -9.117852e+000  1.282047e+002
5.4450625000e+009 -8.614638e-001 -1.481176e+002 -3.254924e+001  1.537633e+002  2.647750e+001  6.370548e+001 -8.836983e+000  1.305332e+002
5.4451875000e+009 -9.365565e-001 -1.476904e+002 -3.254427e+001  1.559790e+002  2.643075e+001  6.377317e+001 -8.998873e+000  1.315619e+002
5.4453125000e+009 -8.918207e-001 -1.486475e+002 -3.289032e+001  1.515002e+002  2.643748e+001  6.285394e+001 -8.776961e+000  1.295048e+002
5.4454375000e+009 -9.176547e-001 -1.485723e+002 -3.249490e+001  1.505567e+002  2.639843e+001  6.217164e+001 -9.054728e+000  1.282859e+002
5.4455625000e+009 -9.398381e-001 -1.487068e+002 -3.245803e+001  1.528086e+002  2.637646e+001  6.239099e+001 -9.259770e+000  1.300322e+002
5.4456875000e+009 -1.045544e+000 -1.490366e+002 -3.309340e+001  1.521989e+002  2.641780e+001  6.117169e+001 -8.875181e+000  1.258916e+002
5.4458125000e+009 -1.079865e+000 -1.487845e+002 -3.265228e+001  1.533984e+002  2.639384e+001  6.186495e+001 -8.976146e+000  1.294180e+002
5.4459375000e+009 -1.061158e+000 -1.497404e+002 -3.297859e+001  1.525387e+002  2.635614e+001  6.074198e+001 -9.127693e+000  1.244040e+002
5.4460625000e+009 -1.011983e+000 -1.500757e+002 -3.285823e+001  1.483091e+002  2.637578e+001  6.044460e+001 -8.837053e+000  1.266610e+002
5.4461875000e+009 -1.060295e+000 -1.496828e+002 -3.307427e+001  1.519444e+002  2.635222e+001  6.039045e+001 -9.070388e+000  1.266456e+002
5.4463125000e+009 -1.083086e+000 -1.501732e+002 -3.233942e+001  1.474047e+002  2.631014e+001  6.038649e+001 -9.064648e+000  1.290510e+002
5.4464375000e+009 -1.097718e+000 -1.503708e+002 -3.317278e+001  1.499301e+002  2.635835e+001  5.991663e+001 -9.115009e+000  1.274439e+002
5.4465625000e+009 -1.149830e+000 -1.502498e+002 -3.297929e+001  1.536998e+002  2.628356e+001  5.989879e+001 -9.049332e+000  1.279778e+002
5.4466875000e+009 -1.030190e+000 -1.504830e+002 -3.242513e+001  1.531802e+002  2.631285e+001  5.875035e+001 -9.047343e+000  1.243032e+002
5.4468125000e+009 -1.091609e+000 -1.512002e+002 -3.163755e+001  1.522980e+002  2.630954e+001  5.857245e+001 -9.304567e+000  1.252275e+002
5.4469375000e+009 -1.256080e+000 -1.509733e+002 -3.295890e+001  1.488246e+002  2.628158e+001  5.865555e+001 -9.219361e+000  1.253667e+002
5.4470625000e+009 -1.198285e+000 -1.514126e+002 -3.259628e+001  1.504401e+002  2.631060e+001  5.786145e+001 -8.925739e+000  1.247972e+002
5.4471875000e+009 -1.274125e+000 -1.515354e+002 -3.269406e+001  1.521868e+002  2.627083e+001  5.763142e+001 -9.236072e+000  1.239628e+002
5.4473125000e+009 -1.312229e+000 -1.520412e+002 -3.276822e+001  1.473012e+002  2.626694e+001  5.738948e+001 -9.085212e+000  1.241827e+002
5.4474375000e+009 -1.169824e+000 -1.521622e+002 -3.288658e+001  1.474151e+002  2.624226e+001  5.690740e+001 -9.081115e+000  1.224240e+002
5.4475625000e+009 -1.149322e+000 -1.521820e+002 -3.255093e+001  1.489331e+002  2.627387e+001  5.661554e+001 -9.170593e+000  1.229910e+002
5.4476875000e+009 -1.389754e+000 -1.528678e+002 -3.355151e+001  1.465731e+002  2.620168e+001  5.647624e+001 -9.062871e+000  1.206360e+002
5.4478125000e+009 -1.228343e+000 -1.525335e+002 -3.318022e+001  1.484487e+002  2.623679e+001  5.591314e+001 -8.873319e+000  1.230325e+002
5.4479375000e+009 -1.296496e+000 -1.530880e+002 -3.301292e+001  1.491598e+002  2.622618e+001  5.540111e+001 -8.957362e+000  1.209296e+002
5.4480625000e+009 -1.324138e+000 -1.531292e+002 -3.293718e+001  1.481872e+002  2.620492e+001  5.513276e+001 -9.029522e+000  1.199712e+002
5.4481875000e+009 -1.290095e+000 -1.537018e+002 -3.209007e+001  1.486442e+002  2.616190e+001  5.499737e+001 -9.182694e+000  1.214427e+002
5.4483125000e+009 -1.342890e+000 -1.537549e+002 -3.246417e+001  1.485432e+002  2.621783e+001  5.467495e+001 -9.147793e+000  1.227269e+002
5.4484375000e+009 -1.298132e+000 -1.537032e+002 -3.245724e+001  1.489989e+002  2.621792e+001  5.418408e+001 -9.031219e+000  1.221881e+002
5.4485625000e+009 -1.279141e+000 -1.536890e+002 -3.256187e+001  1.474925e+002  2.620318e+001  5.410570e+001 -9.115955e+000  1.222928e+002
5.4486875000e+009 -1.407521e+000 -1.545235e+002 -3.267460e+001  1.479114e+002  2.616747e+001  5.333189e+001 -9.064506e+000  1.178045e+002
5.4488125000e+009 -1.441151e+000 -1.550847e+002 -3.283888e+001  1.450152e+002  2.618961e+001  5.317001e+001 -8.919126e+000  1.196784e+002
5.4489375000e+009 -1.341332e+000 -1.550046e+002 -3.199493e+001  1.472831e+002  2.609286e+001  5.294521e+001 -8.995434e+000  1.183436e+002
5.4490625000e+009 -1.402743e+000 -1.550464e+002 -3.275974e+001  1.460268e+002  2.618042e+001  5.213397e+001 -8.894981e+000  1.188429e+002
5.4491875000e+009 -1.432168e+000 -1.552904e+002 -3.238126e+001  1.468454e+002  2.612411e+001  5.233921e+001 -9.171250e+000  1.173898e+002
5.4493125000e+009 -1.430823e+000 -1.554554e+002 -3.268674e+001  1.474892e+002  2.611646e+001  5.225100e+001 -9.248215e+000  1.185442e+002
5.4494375000e+009 -1.526646e+000 -1.559951e+002 -3.291273e+001  1.501988e+002  2.609279e+001  5.136247e+001 -8.860425e+000  1.158654e+002
5.4495625000e+009 -1.569280e+000 -1.564144e+002 -3.259727e+001  1.430055e+002  2.606181e+001  5.116779e+001 -8.801778e+000  1.151111e+002
5.4496875000e+009 -1.481669e+000 -1.561276e+002 -3.283179e+001  1.441617e+002  2.606879e+001  5.090205e+001 -8.971581e+000  1.173273e+002
5.4498125000e+009 -1.541855e+000 -1.569451e+002 -3.276801e+001  1.423314e+002  2.604884e+001  5.010618e+001 -8.542150e+000  1.136154e+002
5.4499375000e+009 -1.573202e+000 -1.570792e+002 -3.251447e+001  1.403778e+002  2.605204e+001  5.034081e+001 -8.942015e+000  1.163458e+002
5.4500625000e+009 -1.542814e+000 -1.569005e+002 -3.297073e+001  1.429071e+002  2.600568e+001  4.979531e+001 -8.734775e+000  1.141196e+002
5.4501875000e+009 -1.577577e+000 -1.574402e+002 -3.253537e+001  1.446237e+002  2.593647e+001  4.916284e+001 -8.634274e+000  1.122808e+002
5.4503125000e+009 -1.604301e+000 -1.575655e+002 -3.265685e+001  1.431810e+002  2.598606e+001  4.837740e+001 -8.521312e+000  1.132119e+002
5.4504375000e+009 -1.557559e+000 -1.576225e+002 -3.242358e+001  1.448251e+002  2.599615e+001  4.860424e+001 -8.909024e+000  1.152514e+002
5.4505625000e+009 -1.560462e+000 -1.581747e+002 -3.211133e+001  1.435792e+002  2.589949e+001  4.774240e+001 -8.574887e+000  1.125992e+002
5.4506875000e+009 -1.562421e+000 -1.582557e+002 -3.211972e+001  1.441813e+002  2.593205e+001  4.779963e+001 -8.772777e+000  1.124723e+002
5.4508125000e+009 -1.578473e+000 -1.581376e+002 -3.244579e+001  1.430518e+002  2.606753e+001  4.811845e+001 -9.119155e+000  1.143615e+002
5.4509375000e+009 -1.613854e+000 -1.584117e+002 -3.173232e+001  1.446052e+002  2.594726e+001  4.670546e+001 -8.687163e+000  1.129356e+002
5.4510625000e+009 -1.673862e+000 -1.584623e+002 -3.262886e+001  1.418738e+002  2.594627e+001  4.634478e+001 -8.559654e+000  1.113176e+002
5.4511875000e+009 -1.608907e+000 -1.587638e+002 -3.227596e+001  1.439460e+002  2.606023e+001  4.739397e+001 -9.155243e+000  1.132236e+002
5.4513125000e+009 -1.643310e+000 -1.588106e+002 -3.237603e+001  1.431431e+002  2.592676e+001  4.627771e+001 -8.704860e+000  1.108506e+002
5.4514375000e+009 -1.662078e+000 -1.588828e+002 -3.204096e+001  1.438082e+002  2.584352e+001  4.571507e+001 -8.726183e+000  1.104572e+002
5.4515625000e+009 -1.636202e+000 -1.588863e+002 -3.264523e+001  1.432188e+002  2.593610e+001  4.609560e+001 -8.979712e+000  1.103541e+002
5.4516875000e+009 -1.637882e+000 -1.591951e+002 -3.237862e+001  1.418652e+002  2.586275e+001  4.484921e+001 -8.595037e+000  1.091004e+002
5.4518125000e+009 -1.693822e+000 -1.596252e+002 -3.218270e+001  1.420859e+002  2.590008e+001  4.557106e+001 -8.787760e+000  1.093186e+002
5.4519375000e+009 -1.628898e+000 -1.593999e+002 -3.225071e+001  1.425215e+002  2.591409e+001  4.526800e+001 -8.857697e+000  1.093990e+002
5.4520625000e+009 -1.710685e+000 -1.598310e+002 -3.198200e+001  1.388414e+002  2.581309e+001  4.433288e+001 -8.539998e+000  1.080123e+002
5.4521875000e+009 -1.702580e+000 -1.591010e+002 -3.309650e+001  1.465399e+002  2.580636e+001  4.413316e+001 -8.712885e+000  1.066254e+002
5.4523125000e+009 -1.651508e+000 -1.600175e+002 -3.196873e+001  1.408729e+002  2.588947e+001  4.489891e+001 -9.002442e+000  1.078945e+002
5.4524375000e+009 -1.716515e+000 -1.601073e+002 -3.173215e+001  1.417670e+002  2.581754e+001  4.325968e+001 -8.672245e+000  1.072425e+002
5.4525625000e+009 -1.724715e+000 -1.602622e+002 -3.194487e+001  1.395247e+002  2.580599e+001  4.226134e+001 -8.440867e+000  1.059321e+002
5.4526875000e+009 -1.722470e+000 -1.604821e+002 -3.196790e+001  1.373290e+002  2.573611e+001  4.258861e+001 -8.484431e+000  1.066203e+002
5.4528125000e+009 -1.753489e+000 -1.602322e+002 -3.252958e+001  1.412900e+002  2.584504e+001  4.277662e+001 -8.680197e+000  1.049482e+002
5.4529375000e+009 -1.767228e+000 -1.602871e+002 -3.213247e+001  1.444267e+002  2.581137e+001  4.234155e+001 -8.760695e+000  1.049519e+002
5.4530625000e+009 -1.779121e+000 -1.608274e+002 -3.186343e+001  1.388223e+002  2.582330e+001  4.190698e+001 -8.680776e+000  1.056336e+002
5.4531875000e+009 -1.810850e+000 -1.608584e+002 -3.232936e+001  1.412448e+002  2.575219e+001  4.095135e+001 -8.530540e+000  1.039676e+002
5.4533125000e+009 -1.812570e+000 -1.604766e+002 -3.285445e+001  1.400024e+002  2.581961e+001  4.105849e+001 -8.474773e+000  1.032998e+002
5.4534375000e+009 -1.808168e+000 -1.604926e+002 -3.291742e+001  1.414623e+002  2.573284e+001  4.075635e+001 -8.508931e+000  1.019398e+002
5.4535625000e+009 -1.799563e+000 -1.611266e+002 -3.201785e+001  1.364753e+002  2.576473e+001  4.031537e+001 -8.388109e+000  1.030181e+002
5.4536875000e+009 -1.858630e+000 -1.612378e+002 -3.277186e+001  1.378186e+002  2.578729e+001  4.034165e+001 -8.426947e+000  1.019898e+002
5.4538125000e+009 -1.772366e+000 -1.614473e+002 -3.242722e+001  1.403230e+002  2.578144e+001  4.006954e+001 -8.572765e+000  1.016316e+002
5.4539375000e+009 -1.756339e+000 -1.617049e+002 -3.230179e+001  1.402550e+002  2.570232e+001  3.942546e+001 -8.476624e+000  1.004080e+002
5.4540625000e+009 -1.944211e+000 -1.615400e+002 -3.239452e+001  1.368667e+002  2.572330e+001  3.944641e+001 -8.362617e+000  1.004907e+002
5.4541875000e+009 -1.860493e+000 -1.616411e+002 -3.257737e+001  1.367813e+002  2.570495e+001  3.937374e+001 -8.427335e+000  9.983521e+001
5.4543125000e+009 -1.883686e+000 -1.622657e+002 -3.166021e+001  1.370244e+002  2.566560e+001  3.800352e+001 -8.340277e+000  1.005315e+002
5.4544375000e+009 -1.911040e+000 -1.623235e+002 -3.246629e+001  1.390595e+002  2.569528e+001  3.804048e+001 -8.401978e+000  9.906598e+001
5.4545625000e+009 -1.855499e+000 -1.625053e+002 -3.203526e+001  1.369635e+002  2.572121e+001  3.835981e+001 -8.375415e+000  9.907810e+001
5.4546875000e+009 -1.846413e+000 -1.628570e+002 -3.164709e+001  1.354221e+002  2.557889e+001  3.691520e+001 -8.245314e+000  9.872020e+001
5.4548125000e+009 -1.889030e+000 -1.622576e+002 -3.213404e+001  1.325185e+002  2.566077e+001  3.649669e+001 -8.134872e+000  9.815826e+001
5.4549375000e+009 -1.889769e+000 -1.632042e+002 -3.227690e+001  1.350044e+002  2.566787e+001  3.777629e+001 -8.259606e+000  9.783451e+001
5.4550625000e+009 -1.926539e+000 -1.632497e+002 -3.186734e+001  1.401557e+002  2.561288e+001  3.621461e+001 -8.411513e+000  9.671348e+001
5.4551875000e+009 -1.899820e+000 -1.629534e+002 -3.196062e+001  1.372146e+002  2.554526e+001  3.541294e+001 -8.221173e+000  9.616347e+001
5.4553125000e+009 -1.959424e+000 -1.637361e+002 -3.220340e+001  1.325479e+002  2.558150e+001  3.684367e+001 -8.185107e+000  9.630725e+001
5.4554375000e+009 -1.888982e+000 -1.634060e+002 -3.242510e+001  1.380809e+002  2.556479e+001  3.639494e+001 -8.223982e+000  9.537792e+001
5.4555625000e+009 -2.001391e+000 -1.633723e+002 -3.201792e+001  1.327630e+002  2.556878e+001  3.507611e+001 -8.057789e+000  9.518209e+001
5.4556875000e+009 -1.859690e+000 -1.634605e+002 -3.218648e+001  1.362899e+002  2.558090e+001  3.565523e+001 -8.204293e+000  9.430849e+001
5.4558125000e+009 -1.930275e+000 -1.636175e+002 -3.217189e+001  1.408174e+002  2.558544e+001  3.315233e+001 -8.173944e+000  9.325340e+001
5.4559375000e+009 -2.062465e+000 -1.631324e+002 -3.224396e+001  1.303615e+002  2.556071e+001  3.376152e+001 -7.907620e+000  9.331368e+001
5.4560625000e+009 -1.957269e+000 -1.633446e+002 -3.255366e+001  1.333837e+002  2.550470e+001  3.392488e+001 -8.021950e+000  9.246974e+001
5.4561875000e+009 -1.946227e+000 -1.645243e+002 -3.201842e+001  1.401386e+002  2.550892e+001  3.258567e+001 -8.165330e+000  9.192297e+001
5.4563125000e+009 -2.200262e+000 -1.642646e+002 -3.264941e+001  1.283138e+002  2.550375e+001  3.243502e+001 -7.807187e+000  9.143594e+001
5.4564375000e+009 -1.922538e+000 -1.648414e+002 -3.226960e+001  1.374821e+002  2.546490e+001  3.330581e+001 -8.081367e+000  9.150964e+001
5.4565625000e+009 -2.094239e+000 -1.643592e+002 -3.230708e+001  1.324644e+002  2.545625e+001  3.196528e+001 -7.878949e+000  9.080312e+001
5.4566875000e+009 -2.028802e+000 -1.648454e+002 -3.229267e+001  1.353691e+002  2.544540e+001  3.104252e+001 -7.905368e+000  8.966174e+001
5.4568125000e+009 -2.041471e+000 -1.649512e+002 -3.216851e+001  1.312684e+002  2.542255e+001  3.190638e+001 -7.810394e+000  9.038425e+001
5.4569375000e+009 -1.962855e+000 -1.652797e+002 -3.159070e+001  1.319945e+002  2.543659e+001  3.067284e+001 -7.801742e+000  8.967731e+001
5.4570625000e+009 -2.105075e+000 -1.653666e+002 -3.124514e+001  1.286933e+002  2.544274e+001  3.025046e+001 -7.717360e+000  8.985417e+001
5.4571875000e+009 -2.117500e+000 -1.650457e+002 -3.170616e+001  1.313718e+002  2.543670e+001  3.035812e+001 -7.770577e+000  8.870892e+001
5.4573125000e+009 -2.027240e+000 -1.649953e+002 -3.170329e+001  1.303171e+002  2.536960e+001  2.990725e+001 -7.689659e+000  8.821362e+001
5.4574375000e+009 -1.975403e+000 -1.656063e+002 -3.222897e+001  1.323616e+002  2.531711e+001  2.952190e+001 -7.812698e+000  8.699300e+001
5.4575625000e+009 -2.175264e+000 -1.654274e+002 -3.247971e+001  1.325310e+002  2.537567e+001  2.964669e+001 -7.641974e+000  8.636762e+001
5.4576875000e+009 -1.974676e+000 -1.670467e+002 -3.161292e+001  1.343317e+002  2.530446e+001  2.820620e+001 -7.825864e+000  8.601527e+001
5.4578125000e+009 -2.120256e+000 -1.658356e+002 -3.205729e+001  1.283858e+002  2.531813e+001  2.796429e+001 -7.551120e+000  8.574604e+001
5.4579375000e+009 -2.000731e+000 -1.667951e+002 -3.212563e+001  1.320434e+002  2.532804e+001  2.894754e+001 -7.658384e+000  8.542223e+001
5.4580625000e+009 -2.021954e+000 -1.658756e+002 -3.173569e+001  1.284244e+002  2.533343e+001  2.757484e+001 -7.502842e+000  8.447330e+001
5.4581875000e+009 -2.294633e+000 -1.663915e+002 -3.227128e+001  1.276554e+002  2.528831e+001  2.732598e+001 -7.508964e+000  8.418630e+001
5.4583125000e+009 -2.168098e+000 -1.665078e+002 -3.244261e+001  1.274751e+002  2.527258e+001  2.787205e+001 -7.422860e+000  8.421189e+001
5.4584375000e+009 -2.073545e+000 -1.675347e+002 -3.177759e+001  1.281926e+002  2.525794e+001  2.630191e+001 -7.426057e+000  8.313048e+001
5.4585625000e+009 -2.291230e+000 -1.665828e+002 -3.242515e+001  1.275188e+002  2.525193e+001  2.598619e+001 -7.361664e+000  8.193976e+001
5.4586875000e+009 -2.119552e+000 -1.678809e+002 -3.146066e+001  1.262581e+002  2.523454e+001  2.628904e+001 -7.303715e+000  8.303970e+001
5.4588125000e+009 -2.093562e+000 -1.679024e+002 -3.147811e+001  1.261422e+002  2.523608e+001  2.493934e+001 -7.272884e+000  8.184103e+001
5.4589375000e+009 -2.377894e+000 -1.670293e+002 -3.185390e+001  1.239182e+002  2.521290e+001  2.510777e+001 -7.302348e+000  8.135699e+001
5.4590625000e+009 -2.271739e+000 -1.681901e+002 -3.246929e+001  1.252025e+002  2.514869e+001  2.558875e+001 -7.359532e+000  8.131961e+001
5.4591875000e+009 -2.237850e+000 -1.686636e+002 -3.095850e+001  1.274415e+002  2.518746e+001  2.461236e+001 -7.238923e+000  8.192970e+001
5.4593125000e+009 -2.461847e+000 -1.669147e+002 -3.255452e+001  1.237437e+002  2.517421e+001  2.379238e+001 -7.136105e+000  7.877302e+001
5.4594375000e+009 -2.255469e+000 -1.682667e+002 -3.206914e+001  1.252807e+002  2.512479e+001  2.412602e+001 -7.205623e+000  7.930529e+001
5.4595625000e+009 -2.232530e+000 -1.682215e+002 -3.155467e+001  1.252902e+002  2.510769e+001  2.314636e+001 -7.145398e+000  7.873615e+001
5.4596875000e+009 -2.465452e+000 -1.681024e+002 -3.181475e+001  1.230689e+002  2.510981e+001  2.298833e+001 -7.041590e+000  7.785529e+001
5.4598125000e+009 -2.056791e+000 -1.692559e+002 -3.211546e+001  1.231400e+002  2.501226e+001  2.324674e+001 -7.121813e+000  7.849723e+001
5.4599375000e+009 -2.023719e+000 -1.704341e+002 -3.186760e+001  1.246642e+002  2.502818e+001  2.218384e+001 -7.002276e+000  7.696373e+001
5.4600625000e+009 -2.422792e+000 -1.677836e+002 -3.262149e+001  1.250243e+002  2.507286e+001  2.151246e+001 -6.940745e+000  7.579908e+001
5.4601875000e+009 -2.253247e+000 -1.690452e+002 -3.191457e+001  1.253351e+002  2.500505e+001  2.137435e+001 -6.950755e+000  7.600365e+001
5.4603125000e+009 -2.297007e+000 -1.697331e+002 -3.250373e+001  1.212191e+002  2.498190e+001  2.136640e+001 -6.844322e+000  7.580858e+001
5.4604375000e+009 -2.458358e+000 -1.692961e+002 -3.276102e+001  1.230157e+002  2.498102e+001  2.056713e+001 -6.880035e+000  7.387563e+001
5.4605625000e+009 -2.274608e+000 -1.705736e+002 -3.195675e+001  1.203489e+002  2.490050e+001  2.015604e+001 -6.725094e+000  7.441396e+001
5.4606875000e+009 -2.237705e+000 -1.692312e+002 -3.215374e+001  1.230707e+002  2.496063e+001  1.936797e+001 -6.771512e+000  7.339008e+001
5.4608125000e+009 -2.456356e+000 -1.699992e+002 -3.204482e+001  1.182190e+002  2.489191e+001  1.941064e+001 -6.726577e+000  7.336391e+001
5.4609375000e+009 -2.252614e+000 -1.703362e+002 -3.186298e+001  1.197079e+002  2.487880e+001  1.875194e+001 -6.753314e+000  7.264858e+001
5.4610625000e+009 -2.178038e+000 -1.709023e+002 -3.182443e+001  1.242403e+002  2.491031e+001  1.812907e+001 -6.601554e+000  7.203680e+001
5.4611875000e+009 -2.434452e+000 -1.709311e+002 -3.164185e+001  1.187730e+002  2.485330e+001  1.808331e+001 -6.557358e+000  7.234743e+001
5.4613125000e+009 -2.331109e+000 -1.711291e+002 -3.226749e+001  1.201666e+002  2.480944e+001  1.789069e+001 -6.556081e+000  7.105466e+001
5.4614375000e+009 -2.304643e+000 -1.708943e+002 -3.182269e+001  1.217731e+002  2.480440e+001  1.760571e+001 -6.611605e+000  7.192046e+001
5.4615625000e+009 -2.355771e+000 -1.708434e+002 -3.170408e+001  1.185816e+002  2.481507e+001  1.708070e+001 -6.552045e+000  7.155218e+001
5.4616875000e+009 -2.468161e+000 -1.713107e+002 -3.234804e+001  1.188370e+002  2.476421e+001  1.702201e+001 -6.534989e+000  6.987920e+001
5.4618125000e+009 -2.200076e+000 -1.712849e+002 -3.158609e+001  1.153354e+002  2.473916e+001  1.610525e+001 -6.401076e+000  6.961766e+001
5.4619375000e+009 -2.530309e+000 -1.713349e+002 -3.234815e+001  1.215408e+002  2.474316e+001  1.567549e+001 -6.450407e+000  6.849160e+001
5.4620625000e+009 -2.345175e+000 -1.718515e+002 -3.158843e+001  1.200559e+002  2.471159e+001  1.563178e+001 -6.470127e+000  6.954551e+001
5.4621875000e+009 -2.455227e+000 -1.715646e+002 -3.217567e+001  1.161673e+002  2.471678e+001  1.508783e+001 -6.293179e+000  6.774918e+001
5.4623125000e+009 -2.540647e+000 -1.721621e+002 -3.180244e+001  1.174361e+002  2.465425e+001  1.484831e+001 -6.422348e+000  6.762675e+001
5.4624375000e+009 -2.326271e+000 -1.719431e+002 -3.175744e+001  1.199839e+002  2.464849e+001  1.446286e+001 -6.406760e+000  6.711674e+001
5.4625625000e+009 -2.318161e+000 -1.722723e+002 -3.234804e+001  1.162593e+002  2.463316e+001  1.394520e+001 -6.276282e+000  6.703486e+001
5.4626875000e+009 -2.472515e+000 -1.725607e+002 -3.173151e+001  1.144358e+002  2.463329e+001  1.348426e+001 -6.143106e+000  6.611185e+001
5.4628125000e+009 -2.450603e+000 -1.716162e+002 -3.194406e+001  1.118524e+002  2.463319e+001  1.291242e+001 -6.089620e+000  6.572646e+001
5.4629375000e+009 -2.621842e+000 -1.733257e+002 -3.223134e+001  1.183287e+002  2.455830e+001  1.303362e+001 -6.352948e+000  6.475975e+001
5.4630625000e+009 -2.838665e+000 -1.739847e+002 -3.155808e+001  1.120080e+002  2.458043e+001  1.268820e+001 -6.090224e+000  6.454866e+001
5.4631875000e+009 -2.636383e+000 -1.726840e+002 -3.195706e+001  1.141259e+002  2.454195e+001  1.214032e+001 -6.239290e+000  6.470570e+001
5.4633125000e+009 -2.555167e+000 -1.728741e+002 -3.190772e+001  1.109500e+002  2.452320e+001  1.113962e+001 -6.020732e+000  6.403062e+001
5.4634375000e+009 -2.851035e+000 -1.737106e+002 -3.190460e+001  1.135569e+002  2.452092e+001  1.073577e+001 -5.975474e+000  6.307239e+001
5.4635625000e+009 -2.531333e+000 -1.738132e+002 -3.185318e+001  1.108524e+002  2.447159e+001  1.064923e+001 -6.078084e+000  6.344997e+001
5.4636875000e+009 -2.232876e+000 -1.734260e+002 -3.160141e+001  1.127607e+002  2.443639e+001  9.666426e+000 -6.002654e+000  6.328774e+001
5.4638125000e+009 -2.872913e+000 -1.745419e+002 -3.216235e+001  1.084796e+002  2.440678e+001  9.494336e+000 -5.910858e+000  6.158294e+001
5.4639375000e+009 -2.896555e+000 -1.753858e+002 -3.179902e+001  1.084915e+002  2.446975e+001  9.759069e+000 -5.973499e+000  6.230366e+001
5.4640625000e+009 -2.710763e+000 -1.752590e+002 -3.176451e+001  1.091420e+002  2.440173e+001  8.931532e+000 -5.912547e+000  6.137836e+001
5.4641875000e+009 -2.986590e+000 -1.761915e+002 -3.170657e+001  1.099244e+002  2.441846e+001  8.766901e+000 -5.929227e+000  6.102713e+001
5.4643125000e+009 -2.613371e+000 -1.750488e+002 -3.244477e+001  1.079398e+002  2.437916e+001  8.493617e+000 -6.038304e+000  6.026571e+001
5.4644375000e+009 -2.901932e+000 -1.758917e+002 -3.177767e+001  1.104034e+002  2.436131e+001  7.662886e+000 -5.946290e+000  6.015239e+001
5.4645625000e+009 -2.925816e+000 -1.762622e+002 -3.192686e+001  1.088273e+002  2.431256e+001  7.250221e+000 -5.869055e+000  5.907629e+001
5.4646875000e+009 -3.032622e+000 -1.767504e+002 -3.210827e+001  1.114057e+002  2.428233e+001  6.810994e+000 -5.963148e+000  5.900635e+001
5.4648125000e+009 -2.931096e+000 -1.758723e+002 -3.221871e+001  1.054521e+002  2.431996e+001  6.670562e+000 -5.888439e+000  5.830084e+001
5.4649375000e+009 -2.909928e+000 -1.757098e+002 -3.190793e+001  1.080490e+002  2.417911e+001  5.772251e+000 -5.824304e+000  5.757177e+001
5.4650625000e+009 -3.023597e+000 -1.773739e+002 -3.155619e+001  1.026782e+002  2.418376e+001  6.191383e+000 -5.827331e+000  5.747584e+001
5.4651875000e+009 -2.553496e+000 -1.762758e+002 -3.207317e+001  1.060720e+002  2.415440e+001  4.823793e+000 -5.821484e+000  5.722326e+001
5.4653125000e+009 -3.240081e+000 -1.785025e+002 -3.183982e+001  1.063597e+002  2.425335e+001  4.389746e+000 -5.721458e+000  5.727158e+001
5.4654375000e+009 -3.073515e+000 -1.770562e+002 -3.215926e+001  1.078740e+002  2.417222e+001  4.354629e+000 -5.947400e+000  5.608575e+001
5.4655625000e+009 -3.005398e+000 -1.772930e+002 -3.198944e+001  1.045656e+002  2.418932e+001  3.890153e+000 -5.890797e+000  5.616236e+001
5.4656875000e+009 -3.164433e+000 -1.794159e+002 -3.201403e+001  1.085590e+002  2.403589e+001  3.197570e+000 -5.863546e+000  5.495479e+001
5.4658125000e+009 -3.213292e+000 -1.786257e+002 -3.182841e+001  1.028588e+002  2.414538e+001  3.651926e+000 -5.906349e+000  5.504994e+001
5.4659375000e+009 -3.133384e+000 -1.780761e+002 -3.187051e+001  1.012618e+002  2.406961e+001  2.634787e+000 -5.788737e+000  5.430309e+001
5.4660625000e+009 -3.054157e+000 -1.786765e+002 -3.187346e+001  1.039469e+002  2.406950e+001  2.397703e+000 -5.887064e+000  5.417139e+001
5.4661875000e+009 -3.195551e+000 -1.780299e+002 -3.184590e+001  1.012977e+002  2.393745e+001  1.246320e+000 -5.730375e+000  5.300505e+001
5.4663125000e+009 -3.211282e+000 -1.788066e+002 -3.180246e+001  1.016849e+002  2.396125e+001  1.086125e+000 -5.782400e+000  5.265095e+001
5.4664375000e+009 -3.266035e+000 -1.783523e+002 -3.218768e+001  1.009633e+002  2.383941e+001  4.189096e-001 -5.773329e+000  5.132024e+001
5.4665625000e+009 -3.273975e+000 -1.797365e+002 -3.214545e+001  1.001995e+002  2.394835e+001  6.818869e-001 -5.900143e+000  5.147855e+001
5.4666875000e+009 -3.037138e+000 -1.782128e+002 -3.263727e+001  1.037190e+002  2.386112e+001 -3.946657e-002 -6.051125e+000  5.042056e+001
5.4668125000e+009 -3.303015e+000 -1.798552e+002 -3.271438e+001  9.577897e+001  2.388612e+001 -9.016439e-001 -5.799682e+000  4.962186e+001
5.4669375000e+009 -3.351088e+000  1.796473e+002 -3.225359e+001  9.739349e+001  2.388949e+001 -1.067822e+000 -5.841455e+000  4.996082e+001
5.4670625000e+009 -3.242818e+000 -1.793701e+002 -3.129972e+001  9.857699e+001  2.382158e+001 -2.651436e-001 -6.023668e+000  5.011708e+001
5.4671875000e+009 -3.373809e+000  1.790336e+002 -3.195369e+001  9.667413e+001  2.380020e+001 -2.500276e+000 -5.813439e+000  4.902285e+001
5.4673125000e+009 -3.427601e+000  1.795310e+002 -3.221236e+001  9.682973e+001  2.369817e+001 -2.185211e+000 -5.987351e+000  4.732812e+001
5.4674375000e+009 -3.382300e+000  1.791734e+002 -3.232335e+001  9.844782e+001  2.363359e+001 -2.811466e+000 -5.990191e+000  4.710249e+001
5.4675625000e+009 -3.433287e+000  1.785920e+002 -3.295308e+001  9.469196e+001  2.360754e+001 -3.116639e+000 -6.025219e+000  4.560340e+001
5.4676875000e+009 -3.417929e+000  1.792402e+002 -3.244034e+001  9.223126e+001  2.352834e+001 -5.314272e+000 -5.802241e+000  4.533119e+001
5.4678125000e+009 -3.436914e+000  1.782509e+002 -3.219261e+001  9.441959e+001  2.354972e+001 -4.984209e+000 -5.936625e+000  4.541587e+001
5.4679375000e+009 -3.467794e+000  1.781853e+002 -3.246087e+001  9.747191e+001  2.340402e+001 -6.148080e+000 -5.985028e+000  4.442950e+001
5.4680625000e+009 -3.610840e+000  1.786396e+002 -3.171691e+001  8.761013e+001  2.348389e+001 -5.487393e+000 -5.841044e+000  4.399992e+001
5.4681875000e+009 -3.479488e+000  1.778275e+002 -3.285386e+001  9.143186e+001  2.351928e+001 -5.058657e+000 -6.194788e+000  4.318276e+001
5.4683125000e+009 -3.514515e+000  1.770788e+002 -3.219283e+001  9.454329e+001  2.331217e+001 -6.995600e+000 -6.091379e+000  4.279776e+001
5.4684375000e+009 -3.526923e+000  1.771533e+002 -3.232431e+001  9.424161e+001  2.325830e+001 -6.238069e+000 -6.248561e+000  4.172644e+001
5.4685625000e+009 -3.557508e+000  1.778702e+002 -3.199269e+001  9.207029e+001  2.320535e+001 -7.450558e+000 -6.142533e+000  4.127393e+001
5.4686875000e+009 -3.590187e+000  1.769667e+002 -3.292223e+001  9.449088e+001  2.315721e+001 -8.315513e+000 -6.299911e+000  4.003949e+001
5.4688125000e+009 -3.578554e+000  1.759751e+002 -3.234786e+001  9.304575e+001  2.315072e+001 -8.252879e+000 -6.306838e+000  4.001374e+001
5.4689375000e+009 -3.635980e+000  1.762795e+002 -3.248822e+001  9.324537e+001  2.314043e+001 -8.509769e+000 -6.400383e+000  3.931283e+001
5.4690625000e+009 -3.665569e+000  1.754690e+002 -3.301379e+001  9.017032e+001  2.303088e+001 -9.172007e+000 -6.431034e+000  3.787890e+001
5.4691875000e+009 -3.710410e+000  1.759756e+002 -3.226029e+001  8.657308e+001  2.304794e+001 -1.014731e+001 -6.321686e+000  3.791028e+001
5.4693125000e+009 -3.655692e+000  1.758964e+002 -3.220405e+001  8.367373e+001  2.290445e+001 -1.059540e+001 -6.331679e+000  3.642044e+001
5.4694375000e+009 -3.772339e+000  1.744517e+002 -3.281712e+001  8.522289e+001  2.289206e+001 -1.155374e+001 -6.417532e+000  3.579478e+001
5.4695625000e+009 -3.796827e+000  1.750098e+002 -3.247161e+001  8.583228e+001  2.284211e+001 -1.241779e+001 -6.451108e+000  3.524050e+001
5.4696875000e+009 -3.681005e+000  1.749574e+002 -3.270896e+001  8.547742e+001  2.275709e+001 -1.153526e+001 -6.665339e+000  3.411405e+001
5.4698125000e+009 -3.772189e+000  1.747410e+002 -3.240509e+001  8.385120e+001  2.268843e+001 -1.331025e+001 -6.557577e+000  3.360086e+001
5.4699375000e+009 -3.829996e+000  1.738485e+002 -3.306096e+001  8.301443e+001  2.267543e+001 -1.338140e+001 -6.725899e+000  3.251875e+001
5.4700625000e+009 -3.761703e+000  1.743233e+002 -3.299191e+001  8.373597e+001  2.253676e+001 -1.328517e+001 -6.848433e+000  3.124454e+001
5.4701875000e+009 -3.890629e+000  1.735277e+002 -3.283081e+001  8.303796e+001  2.252928e+001 -1.508701e+001 -6.853570e+000  3.137319e+001
5.4703125000e+009 -3.860293e+000  1.733342e+002 -3.336266e+001  7.871244e+001  2.246332e+001 -1.615169e+001 -6.910418e+000  2.974254e+001
5.4704375000e+009 -3.871200e+000  1.734856e+002 -3.318710e+001  7.818863e+001  2.230016e+001 -1.532259e+001 -6.989216e+000  2.803530e+001
5.4705625000e+009 -3.902412e+000  1.723856e+002 -3.351619e+001  7.872324e+001  2.225227e+001 -1.596605e+001 -7.151622e+000  2.751947e+001
5.4706875000e+009 -4.008982e+000  1.715664e+002 -3.255157e+001  8.054321e+001  2.223253e+001 -1.576679e+001 -7.279424e+000  2.771964e+001
5.4708125000e+009 -3.962305e+000  1.720715e+002 -3.291182e+001  7.770667e+001  2.217081e+001 -1.667001e+001 -7.273490e+000  2.657875e+001
5.4709375000e+009 -4.063763e+000  1.715569e+002 -3.377670e+001  7.729115e+001  2.207173e+001 -1.818805e+001 -7.493674e+000  2.463112e+001
5.4710625000e+009 -4.051157e+000  1.713149e+002 -3.347272e+001  7.552238e+001  2.187066e+001 -1.771801e+001 -7.535207e+000  2.331236e+001
5.4711875000e+009 -4.089141e+000  1.712960e+002 -3.386608e+001  7.063829e+001  2.191812e+001 -1.845513e+001 -7.649180e+000  2.266832e+001
5.4713125000e+009 -4.112281e+000  1.708272e+002 -3.404146e+001  7.039053e+001  2.178666e+001 -1.965181e+001 -7.765421e+000  2.112906e+001
5.4714375000e+009 -4.182775e+000  1.703851e+002 -3.351452e+001  6.779412e+001  2.173573e+001 -2.073425e+001 -7.714486e+000  2.060092e+001
5.4715625000e+009 -4.151244e+000  1.703116e+002 -3.445883e+001  7.098160e+001  2.151486e+001 -2.015557e+001 -8.046745e+000  1.835835e+001
5.4716875000e+009 -4.237640e+000  1.694155e+002 -3.422936e+001  6.849225e+001  2.152649e+001 -2.186672e+001 -8.074594e+000  1.835061e+001
5.4718125000e+009 -4.289184e+000  1.694249e+002 -3.366739e+001  7.297561e+001  2.149069e+001 -2.109180e+001 -8.412292e+000  1.799452e+001
5.4719375000e+009 -4.214299e+000  1.689157e+002 -3.422141e+001  6.953326e+001  2.132522e+001 -2.198326e+001 -8.546719e+000  1.614197e+001
5.4720625000e+009 -4.352107e+000  1.686893e+002 -3.386291e+001  6.869702e+001  2.126167e+001 -2.270755e+001 -8.705158e+000  1.523534e+001
5.4721875000e+009 -4.467732e+000  1.680253e+002 -3.395279e+001  6.733433e+001  2.111782e+001 -2.314215e+001 -8.755901e+000  1.365646e+001
5.4723125000e+009 -4.419202e+000  1.680571e+002 -3.430858e+001  6.574200e+001  2.099378e+001 -2.358488e+001 -8.881371e+000  1.274502e+001
5.4724375000e+009 -4.370708e+000  1.677962e+002 -3.509254e+001  6.738976e+001  2.081496e+001 -2.444869e+001 -9.203322e+000  1.066260e+001
5.4725625000e+009 -4.522038e+000  1.678491e+002 -3.541302e+001  6.610764e+001  2.070137e+001 -2.485692e+001 -9.431053e+000  8.742043e+000
5.4726875000e+009 -4.467197e+000  1.670116e+002 -3.511379e+001  6.356688e+001  2.042773e+001 -2.437618e+001 -9.428134e+000  6.001887e+000
5.4728125000e+009 -4.659400e+000  1.662610e+002 -3.426312e+001  6.344679e+001  2.048290e+001 -2.549673e+001 -9.862126e+000  6.952855e+000
5.4729375000e+009 -4.635832e+000  1.669440e+002 -3.552179e+001  6.282301e+001  2.040692e+001 -2.643330e+001 -1.027653e+001  4.805006e+000
5.4730625000e+009 -4.680701e+000  1.664711e+002 -3.490931e+001  6.036562e+001  2.011614e+001 -2.638263e+001 -1.011066e+001  1.926941e+000
5.4731875000e+009 -4.733294e+000  1.651133e+002 -3.556376e+001  5.851402e+001  2.004014e+001 -2.725801e+001 -1.062479e+001  6.939771e-001
5.4733125000e+009 -4.867205e+000  1.656272e+002 -3.526376e+001  5.947983e+001  1.996867e+001 -2.814127e+001 -1.093574e+001  8.752486e-001
5.4734375000e+009 -4.651023e+000  1.643840e+002 -3.595620e+001  5.508029e+001  1.970396e+001 -2.821956e+001 -1.111531e+001 -1.632420e+000
5.4735625000e+009 -4.940142e+000  1.644140e+002 -3.603050e+001  5.596529e+001  1.952134e+001 -2.845535e+001 -1.133253e+001 -5.933313e+000
5.4736875000e+009 -4.985432e+000  1.641393e+002 -3.615838e+001  6.353688e+001  1.943365e+001 -2.914975e+001 -1.195033e+001 -5.076173e+000
5.4738125000e+009 -4.981461e+000  1.633135e+002 -3.657361e+001  5.663926e+001  1.926123e+001 -2.963521e+001 -1.218622e+001 -7.550670e+000
5.4739375000e+009 -4.891676e+000  1.637853e+002 -3.677842e+001  5.299579e+001  1.895686e+001 -3.040214e+001 -1.226159e+001 -1.059776e+001
5.4740625000e+009 -5.147084e+000  1.632868e+002 -3.670044e+001  5.598416e+001  1.879727e+001 -3.065254e+001 -1.248012e+001 -1.269031e+001
5.4741875000e+009 -5.279803e+000  1.640068e+002 -3.790659e+001  5.129088e+001  1.866253e+001 -3.095323e+001 -1.310420e+001 -1.470461e+001
5.4743125000e+009 -5.258222e+000  1.629073e+002 -3.811181e+001  5.309196e+001  1.844188e+001 -3.133165e+001 -1.404516e+001 -1.979545e+001
5.4744375000e+009 -5.421260e+000  1.625033e+002 -3.828659e+001  5.645877e+001  1.826312e+001 -3.187273e+001 -1.460640e+001 -2.038940e+001
5.4745625000e+009 -5.515148e+000  1.627072e+002 -3.796687e+001  4.747643e+001  1.799687e+001 -3.236237e+001 -1.409805e+001 -2.342360e+001
5.4746875000e+009 -5.532561e+000  1.623967e+002 -3.811482e+001  5.035052e+001  1.771020e+001 -3.293789e+001 -1.478956e+001 -2.708169e+001
5.4748125000e+009 -5.863471e+000  1.616338e+002 -3.906058e+001  5.071362e+001  1.752457e+001 -3.303396e+001 -1.513191e+001 -2.979477e+001
5.4749375000e+009 -5.606001e+000  1.608767e+002 -3.931213e+001  4.077177e+001  1.718027e+001 -3.333811e+001 -1.511456e+001 -3.531310e+001
5.4750625000e+009 -5.753124e+000  1.604861e+002 -3.892263e+001  4.731234e+001  1.690363e+001 -3.358120e+001 -1.548845e+001 -3.733734e+001
5.4751875000e+009 -5.935014e+000  1.606620e+002 -3.948820e+001  4.421364e+001  1.666031e+001 -3.391786e+001 -1.682525e+001 -4.316723e+001
5.4753125000e+009 -5.850569e+000  1.613278e+002 -4.130935e+001  5.519620e+001  1.627303e+001 -3.445279e+001 -1.604255e+001 -4.365523e+001
5.4754375000e+009 -6.259305e+000  1.612315e+002 -3.896946e+001  4.804010e+001  1.606123e+001 -3.418111e+001 -1.777956e+001 -5.731050e+001
5.4755625000e+009 -6.294990e+000  1.601682e+002 -4.104200e+001  4.615897e+001  1.568166e+001 -3.432387e+001 -1.774964e+001 -5.957985e+001
5.4756875000e+009 -5.858652e+000  1.595132e+002 -4.144522e+001  5.215560e+001  1.530491e+001 -3.418760e+001 -1.796491e+001 -6.267791e+001
5.4758125000e+009 -6.402139e+000  1.603709e+002 -4.094653e+001  4.327820e+001  1.493389e+001 -3.404957e+001 -1.804445e+001 -7.857253e+001
5.4759375000e+009 -6.711110e+000  1.597397e+002 -4.077370e+001  4.486132e+001  1.457244e+001 -3.406685e+001 -1.822618e+001 -8.068344e+001
5.4760625000e+009 -6.661541e+000  1.588431e+002 -4.328582e+001  2.546758e+001  1.419190e+001 -3.365664e+001 -1.809933e+001 -8.514065e+001
5.4761875000e+009 -6.962116e+000  1.596635e+002 -4.360318e+001  4.966529e+001  1.373797e+001 -3.329183e+001 -1.815949e+001 -9.803738e+001
5.4763125000e+009 -7.144718e+000  1.589601e+002 -4.319246e+001  4.758350e+001  1.324939e+001 -3.291520e+001 -1.802740e+001 -9.933243e+001
5.4764375000e+009 -6.824982e+000  1.592242e+002 -4.492086e+001  3.506299e+001  1.282873e+001 -3.216020e+001 -1.804384e+001 -1.050224e+002
5.4765625000e+009 -7.081112e+000  1.586099e+002 -4.491677e+001  4.707620e+001  1.222555e+001 -3.072753e+001 -1.697394e+001 -1.221806e+002
5.4766875000e+009 -7.548365e+000  1.572021e+002 -4.564513e+001  3.308087e+001  1.177421e+001 -2.920334e+001 -1.611600e+001 -1.271507e+002
5.4768125000e+009 -7.337206e+000  1.584363e+002 -4.460012e+001  4.587477e+001  1.125493e+001 -2.832257e+001 -1.672890e+001 -1.239385e+002
5.4769375000e+009 -7.493404e+000  1.579929e+002 -4.909875e+001  3.382399e+001  1.067809e+001 -2.613288e+001 -1.587891e+001 -1.329617e+002
5.4770625000e+009 -7.357741e+000  1.597761e+002 -4.565459e+001  5.665961e+001  1.007492e+001 -2.438863e+001 -1.559383e+001 -1.360539e+002
5.4771875000e+009 -7.757319e+000  1.590114e+002 -5.260933e+001  7.516476e+001  9.591225e+000 -2.202416e+001 -1.538709e+001 -1.386473e+002
5.4773125000e+009 -7.665813e+000  1.587150e+002 -5.022373e+001  5.125036e+001  8.935311e+000 -1.817653e+001 -1.444310e+001 -1.454766e+002
5.4774375000e+009 -8.014451e+000  1.573889e+002 -4.714352e+001  4.467604e+001  8.409299e+000 -1.463970e+001 -1.441025e+001 -1.471113e+002
5.4775625000e+009 -7.885142e+000  1.575834e+002 -5.281739e+001  5.816571e+001  7.893486e+000 -1.030348e+001 -1.369703e+001 -1.509447e+002
5.4776875000e+009 -7.920691e+000  1.592091e+002 -5.284083e+001  7.962041e+001  7.433003e+000 -5.438422e+000 -1.354053e+001 -1.545392e+002
5.4778125000e+009 -8.410663e+000  1.568023e+002 -5.089957e+001  7.430961e+001  7.120802e+000  1.421989e+000 -1.302605e+001 -1.569133e+002
5.4779375000e+009 -8.201678e+000  1.602294e+002 -5.074985e+001  8.089018e+001  6.787336e+000  6.418734e+000 -1.302098e+001 -1.601293e+002
5.4780625000e+009 -8.249882e+000  1.582141e+002 -5.574100e+001  7.469889e+001  6.648854e+000  1.373079e+001 -1.232391e+001 -1.619317e+002
5.4781875000e+009 -8.974951e+000  1.571066e+002 -4.816199e+001  1.102064e+002  6.846537e+000  2.109915e+001 -1.152799e+001 -1.647794e+002
5.4783125000e+009 -8.466008e+000  1.600925e+002 -5.226656e+001  1.206401e+002  6.819192e+000  2.639162e+001 -1.184028e+001 -1.646080e+002
5.4784375000e+009 -8.656277e+000  1.591384e+002 -4.792231e+001  1.023919e+002  7.234381e+000  3.341722e+001 -1.105967e+001 -1.669852e+002
5.4785625000e+009 -8.845350e+000  1.584989e+002 -5.096601e+001  1.182498e+002  7.791849e+000  3.872209e+001 -1.062936e+001 -1.703340e+002
5.4786875000e+009 -8.428590e+000  1.585340e+002 -4.790424e+001  1.592978e+002  7.964680e+000  4.177147e+001 -1.090734e+001 -1.719040e+002
5.4788125000e+009 -8.874932e+000  1.605398e+002 -4.973429e+001  1.456444e+002  8.590805e+000  4.656092e+001 -1.038840e+001 -1.742194e+002
5.4789375000e+009 -9.144061e+000  1.591152e+002 -4.886412e+001  1.099570e+002  9.252861e+000  5.044207e+001 -9.917039e+000 -1.751122e+002
5.4790625000e+009 -8.843195e+000  1.603416e+002 -4.947262e+001  1.289963e+002  9.509407e+000  5.247466e+001 -1.010187e+001 -1.766507e+002
5.4791875000e+009 -9.173312e+000  1.588558e+002 -4.806594e+001  1.425971e+002  1.026455e+001  5.534425e+001 -9.492587e+000 -1.787965e+002
5.4793125000e+009 -9.304858e+000  1.592262e+002 -4.505350e+001  1.282650e+002  1.077103e+001  5.710177e+001 -9.281945e+000  1.796695e+002
5.4794375000e+009 -9.054093e+000  1.601421e+002 -4.777174e+001  1.562903e+002  1.118256e+001  5.889332e+001 -9.014632e+000  1.787843e+002
5.4795625000e+009 -9.385970e+000  1.595191e+002 -4.655543e+001  1.534106e+002  1.183714e+001  6.018606e+001 -8.632212e+000  1.776595e+002
5.4796875000e+009 -9.202181e+000  1.601176e+002 -4.527779e+001  1.483533e+002  1.230148e+001  6.117831e+001 -8.393626e+000  1.762282e+002
5.4798125000e+009 -9.095359e+000  1.626465e+002 -4.999315e+001  1.350519e+002  1.256764e+001  6.177814e+001 -8.350646e+000  1.740553e+002
5.4799375000e+009 -9.242942e+000  1.608959e+002 -4.830101e+001  1.642146e+002  1.320170e+001  6.260885e+001 -7.963692e+000  1.739603e+002
5.4800625000e+009 -9.751378e+000  1.584877e+002 -4.293235e+001  1.617216e+002  1.362629e+001  6.276153e+001 -7.769042e+000  1.730783e+002
5.4801875000e+009 -9.236520e+000  1.644182e+002 -4.356163e+001  1.709613e+002  1.386912e+001  6.336772e+001 -7.672896e+000  1.719757e+002
5.4803125000e+009 -9.334714e+000  1.642397e+002 -4.889024e+001  1.404330e+002  1.426873e+001  6.352158e+001 -7.465048e+000  1.698569e+002
5.4804375000e+009 -9.758842e+000  1.603460e+002 -4.669984e+001  1.616442e+002  1.467962e+001  6.369562e+001 -7.361211e+000  1.686886e+002
5.4805625000e+009 -9.250287e+000  1.621867e+002 -4.221860e+001  1.579482e+002  1.488080e+001  6.371438e+001 -7.168231e+000  1.686307e+002
5.4806875000e+009 -9.588542e+000  1.618621e+002 -4.468880e+001  1.531836e+002  1.527532e+001  6.363528e+001 -6.923449e+000  1.667361e+002
5.4808125000e+009 -9.705669e+000  1.628302e+002 -4.423492e+001  1.391031e+002  1.556237e+001  6.349560e+001 -6.758204e+000  1.660506e+002
5.4809375000e+009 -9.546759e+000  1.650024e+002 -4.185549e+001  1.601562e+002  1.572912e+001  6.358892e+001 -6.793151e+000  1.652242e+002
5.4810625000e+009 -9.525766e+000  1.636004e+002 -4.331660e+001  1.488307e+002  1.604155e+001  6.337696e+001 -6.583241e+000  1.639063e+002
5.4811875000e+009 -9.992909e+000  1.641736e+002 -4.252583e+001  1.511362e+002  1.652941e+001  6.263760e+001 -6.212597e+000  1.628744e+002
5.4813125000e+009 -9.872612e+000  1.644493e+002 -4.160606e+001  1.523158e+002  1.649432e+001  6.288696e+001 -6.318952e+000  1.625600e+002
5.4814375000e+009 -9.868574e+000  1.631012e+002 -4.299219e+001  1.476492e+002  1.694933e+001  6.262749e+001 -6.102788e+000  1.610295e+002
5.4815625000e+009 -1.016621e+001  1.627363e+002 -4.297050e+001  1.423420e+002  1.713166e+001  6.217504e+001 -5.953833e+000  1.600790e+002
5.4816875000e+009 -9.639365e+000  1.645425e+002 -3.994267e+001  1.493666e+002  1.713870e+001  6.175633e+001 -5.934037e+000  1.597786e+002
5.4818125000e+009 -9.899341e+000  1.638493e+002 -3.942170e+001  1.610874e+002  1.751161e+001  6.161551e+001 -5.771283e+000  1.597765e+002
5.4819375000e+009 -9.974174e+000  1.617913e+002 -4.194979e+001  1.476038e+002  1.772705e+001  6.106046e+001 -5.612502e+000  1.578965e+002
5.4820625000e+009 -9.516254e+000  1.649160e+002 -4.177796e+001  1.579637e+002  1.794158e+001  6.080961e+001 -5.527265e+000  1.571657e+002
5.4821875000e+009 -9.835805e+000  1.654523e+002 -3.917310e+001  1.571665e+002  1.807065e+001  6.007954e+001 -5.387135e+000  1.565315e+002
5.4823125000e+009 -9.589993e+000  1.636881e+002 -3.891101e+001  1.505828e+002  1.830293e+001  5.971984e+001 -5.208837e+000  1.555487e+002
5.4824375000e+009 -9.748702e+000  1.675908e+002 -4.022565e+001  1.576447e+002  1.833630e+001  5.909531e+001 -5.314024e+000  1.552776e+002
5.4825625000e+009 -9.779769e+000  1.636219e+002 -3.905902e+001  1.485483e+002  1.860498e+001  5.897436e+001 -5.051888e+000  1.544266e+002
5.4826875000e+009 -9.875388e+000  1.645854e+002 -3.991440e+001  1.535481e+002  1.871143e+001  5.810078e+001 -5.091392e+000  1.531053e+002
5.4828125000e+009 -9.666056e+000  1.645039e+002 -4.013167e+001  1.523991e+002  1.881965e+001  5.834890e+001 -4.969783e+000  1.530303e+002
5.4829375000e+009 -9.586013e+000  1.648875e+002 -3.970893e+001  1.480030e+002  1.893147e+001  5.764174e+001 -4.884600e+000  1.522824e+002
5.4830625000e+009 -9.985254e+000  1.632392e+002 -3.876093e+001  1.536744e+002  1.922059e+001  5.703799e+001 -4.741205e+000  1.512424e+002
5.4831875000e+009 -1.000384e+001  1.642747e+002 -3.825738e+001  1.497543e+002  1.930300e+001  5.670509e+001 -4.713759e+000  1.510139e+002
5.4833125000e+009 -9.704281e+000  1.683951e+002 -3.815156e+001  1.551348e+002  1.941529e+001  5.543584e+001 -4.601188e+000  1.497578e+002
5.4834375000e+009 -9.847707e+000  1.627762e+002 -3.876767e+001  1.418877e+002  1.963701e+001  5.555164e+001 -4.482968e+000  1.481861e+002
5.4835625000e+009 -9.813444e+000  1.659503e+002 -3.910703e+001  1.442920e+002  1.964565e+001  5.497104e+001 -4.457438e+000  1.481941e+002
5.4836875000e+009 -9.897554e+000  1.643925e+002 -3.863163e+001  1.508765e+002  1.984319e+001  5.450269e+001 -4.370481e+000  1.472536e+002
5.4838125000e+009 -9.799178e+000  1.612938e+002 -3.839210e+001  1.466258e+002  1.990303e+001  5.418540e+001 -4.236522e+000  1.473808e+002
5.4839375000e+009 -9.880758e+000  1.652966e+002 -3.805541e+001  1.471004e+002  2.001343e+001  5.346431e+001 -4.245633e+000  1.464774e+002
5.4840625000e+009 -9.860048e+000  1.644976e+002 -3.802472e+001  1.495991e+002  2.006059e+001  5.308847e+001 -4.279835e+000  1.465842e+002
5.4841875000e+009 -9.712055e+000  1.629028e+002 -3.777702e+001  1.471963e+002  2.020803e+001  5.282606e+001 -4.195586e+000  1.450091e+002
5.4843125000e+009 -9.654349e+000  1.659207e+002 -3.873335e+001  1.412759e+002  2.022620e+001  5.218486e+001 -4.131749e+000  1.445872e+002
5.4844375000e+009 -1.003691e+001  1.670734e+002 -3.737449e+001  1.463134e+002  2.032596e+001  5.139202e+001 -4.141508e+000  1.449253e+002
5.4845625000e+009 -1.002865e+001  1.606289e+002 -3.780294e+001  1.435963e+002  2.045241e+001  5.142456e+001 -4.052807e+000  1.434357e+002
5.4846875000e+009 -1.003131e+001  1.656849e+002 -3.761507e+001  1.457202e+002  2.051773e+001  5.030584e+001 -3.927676e+000  1.429482e+002
5.4848125000e+009 -9.975319e+000  1.682073e+002 -3.762623e+001  1.433288e+002  2.061809e+001  4.934872e+001 -3.772843e+000  1.426317e+002
5.4849375000e+009 -9.681124e+000  1.623212e+002 -3.785845e+001  1.456333e+002  2.069878e+001  4.985080e+001 -3.889098e+000  1.411608e+002
5.4850625000e+009 -1.005137e+001  1.656807e+002 -3.888735e+001  1.399466e+002  2.074865e+001  4.898573e+001 -3.906635e+000  1.413927e+002
5.4851875000e+009 -9.972556e+000  1.626667e+002 -3.714379e+001  1.461601e+002  2.087659e+001  4.860313e+001 -3.692215e+000  1.401804e+002
5.4853125000e+009 -9.899344e+000  1.611829e+002 -3.600787e+001  1.421864e+002  2.093458e+001  4.820665e+001 -3.550261e+000  1.407116e+002
5.4854375000e+009 -9.620428e+000  1.634433e+002 -3.739364e+001  1.395999e+002  2.092411e+001  4.789967e+001 -3.739420e+000  1.399834e+002
5.4855625000e+009 -1.009783e+001  1.657711e+002 -3.679196e+001  1.461566e+002  2.110573e+001  4.688755e+001 -3.547079e+000  1.403386e+002
5.4856875000e+009 -9.643354e+000  1.593577e+002 -3.645806e+001  1.354893e+002  2.109077e+001  4.715223e+001 -3.424561e+000  1.378311e+002
5.4858125000e+009 -9.861509e+000  1.627911e+002 -3.709886e+001  1.423926e+002  2.117022e+001  4.653838e+001 -3.633280e+000  1.386287e+002
5.4859375000e+009 -9.628717e+000  1.645551e+002 -3.628357e+001  1.425232e+002  2.119213e+001  4.595572e+001 -3.517096e+000  1.386473e+002
5.4860625000e+009 -9.880299e+000  1.615418e+002 -3.623402e+001  1.391821e+002  2.127843e+001  4.560217e+001 -3.442743e+000  1.374195e+002
5.4861875000e+009 -1.008786e+001  1.644572e+002 -3.632558e+001  1.491346e+002  2.133307e+001  4.524077e+001 -3.603778e+000  1.380978e+002
5.4863125000e+009 -1.008442e+001  1.650163e+002 -3.669041e+001  1.404672e+002  2.142980e+001  4.459267e+001 -3.482255e+000  1.369391e+002
5.4864375000e+009 -9.775358e+000  1.609402e+002 -3.579519e+001  1.344132e+002  2.137850e+001  4.409893e+001 -3.271308e+000  1.345870e+002
5.4865625000e+009 -9.911178e+000  1.622298e+002 -3.623178e+001  1.408839e+002  2.148386e+001  4.428542e+001 -3.572467e+000  1.364657e+002
5.4866875000e+009 -9.458683e+000  1.631677e+002 -3.635022e+001  1.424571e+002  2.148260e+001  4.361604e+001 -3.485914e+000  1.356111e+002
5.4868125000e+009 -9.644857e+000  1.601959e+002 -3.640959e+001  1.427525e+002  2.159065e+001  4.293863e+001 -3.320078e+000  1.346852e+002
5.4869375000e+009 -9.885718e+000  1.628601e+002 -3.551559e+001  1.441990e+002  2.160778e+001  4.238197e+001 -3.308065e+000  1.347218e+002
5.4870625000e+009 -9.938159e+000  1.608324e+002 -3.575760e+001  1.321700e+002  2.171862e+001  4.165866e+001 -3.109471e+000  1.335107e+002
5.4871875000e+009 -1.001775e+001  1.585938e+002 -3.616648e+001  1.305536e+002  2.177467e+001  4.118964e+001 -2.974571e+000  1.320421e+002
5.4873125000e+009 -1.004060e+001  1.592290e+002 -3.519348e+001  1.348587e+002  2.178414e+001  4.158969e+001 -3.184199e+000  1.329324e+002
5.4874375000e+009 -1.013709e+001  1.623106e+002 -3.668429e+001  1.285516e+002  2.179465e+001  4.058949e+001 -3.276134e+000  1.313346e+002
5.4875625000e+009 -1.004999e+001  1.609779e+002 -3.529131e+001  1.356387e+002  2.183536e+001  4.017721e+001 -3.038306e+000  1.315467e+002
5.4876875000e+009 -1.003431e+001  1.606913e+002 -3.579542e+001  1.346724e+002  2.183055e+001  4.008915e+001 -3.230675e+000  1.314084e+002
5.4878125000e+009 -9.946002e+000  1.627958e+002 -3.529486e+001  1.387844e+002  2.181924e+001  3.968203e+001 -3.316977e+000  1.314098e+002
5.4879375000e+009 -9.740656e+000  1.593826e+002 -3.519879e+001  1.369086e+002  2.188023e+001  3.913642e+001 -3.067346e+000  1.301973e+002
5.4880625000e+009 -9.778726e+000  1.600848e+002 -3.498735e+001  1.390361e+002  2.185866e+001  3.946401e+001 -3.278433e+000  1.303587e+002
5.4881875000e+009 -9.921990e+000  1.604219e+002 -3.535557e+001  1.324656e+002  2.197753e+001  3.919513e+001 -3.287943e+000  1.303212e+002
5.4883125000e+009 -9.924537e+000  1.606332e+002 -3.562347e+001  1.348424e+002  2.206405e+001  3.735873e+001 -2.939951e+000  1.292840e+002
5.4884375000e+009 -9.762197e+000  1.592717e+002 -3.542233e+001  1.296730e+002  2.199755e+001  3.842491e+001 -3.248492e+000  1.287768e+002
5.4885625000e+009 -9.602077e+000  1.609653e+002 -3.622482e+001  1.341731e+002  2.190723e+001  3.865367e+001 -3.492650e+000  1.280646e+002
5.4886875000e+009 -9.830709e+000  1.595791e+002 -3.531915e+001  1.303837e+002  2.203621e+001  3.723656e+001 -3.107937e+000  1.277095e+002
5.4888125000e+009 -9.908922e+000  1.620071e+002 -3.516171e+001  1.281922e+002  2.204831e+001  3.724498e+001 -3.279512e+000  1.277612e+002
5.4889375000e+009 -9.761267e+000  1.594280e+002 -3.492641e+001  1.298266e+002  2.215033e+001  3.683258e+001 -3.122853e+000  1.278972e+002
5.4890625000e+009 -9.648714e+000  1.584565e+002 -3.540734e+001  1.294620e+002  2.213994e+001  3.658461e+001 -3.207714e+000  1.267538e+002
5.4891875000e+009 -9.790849e+000  1.609494e+002 -3.545533e+001  1.259173e+002  2.213676e+001  3.623109e+001 -3.280676e+000  1.263514e+002
5.4893125000e+009 -1.002202e+001  1.615218e+002 -3.504280e+001  1.325527e+002  2.216541e+001  3.552539e+001 -3.230706e+000  1.264470e+002
5.4894375000e+009 -9.767194e+000  1.591427e+002 -3.546545e+001  1.223537e+002  2.210711e+001  3.524415e+001 -3.171640e+000  1.243846e+002
5.4895625000e+009 -9.814455e+000  1.602999e+002 -3.544456e+001  1.245326e+002  2.217190e+001  3.544135e+001 -3.318060e+000  1.250141e+002
5.4896875000e+009 -9.969385e+000  1.615384e+002 -3.508665e+001  1.274766e+002  2.224903e+001  3.471316e+001 -3.274144e+000  1.252905e+002
5.4898125000e+009 -9.551522e+000  1.595938e+002 -3.474234e+001  1.312307e+002  2.222296e+001  3.340023e+001 -2.977904e+000  1.246424e+002
5.4899375000e+009 -9.352917e+000  1.587897e+002 -3.495387e+001  1.269622e+002  2.223425e+001  3.453131e+001 -3.279622e+000  1.246263e+002
5.4900625000e+009 -9.579022e+000  1.592411e+002 -3.450302e+001  1.237557e+002  2.219109e+001  3.452985e+001 -3.324948e+000  1.234578e+002
5.4901875000e+009 -9.568691e+000  1.578567e+002 -3.508039e+001  1.220193e+002  2.233622e+001  3.328662e+001 -3.144977e+000  1.231585e+002
5.4903125000e+009 -9.618303e+000  1.591245e+002 -3.552143e+001  1.223144e+002  2.230448e+001  3.359616e+001 -3.383506e+000  1.228787e+002
5.4904375000e+009 -9.634509e+000  1.583600e+002 -3.405991e+001  1.292536e+002  2.226756e+001  3.310908e+001 -3.235741e+000  1.231409e+002
5.4905625000e+009 -9.455238e+000  1.578881e+002 -3.506281e+001  1.257588e+002  2.229179e+001  3.242213e+001 -3.246423e+000  1.221733e+002
5.4906875000e+009 -9.651574e+000  1.594154e+002 -3.475243e+001  1.236322e+002  2.223667e+001  3.224899e+001 -3.334451e+000  1.212075e+002
5.4908125000e+009 -9.621884e+000  1.590747e+002 -3.503856e+001  1.261105e+002  2.233629e+001  3.222981e+001 -3.421421e+000  1.218634e+002
5.4909375000e+009 -9.656684e+000  1.584555e+002 -3.519971e+001  1.220657e+002  2.249238e+001  3.103494e+001 -3.187991e+000  1.214977e+002
5.4910625000e+009 -9.726006e+000  1.585823e+002 -3.475686e+001  1.174893e+002  2.236451e+001  3.164414e+001 -3.354725e+000  1.202026e+002
5.4911875000e+009 -9.756368e+000  1.578927e+002 -3.468715e+001  1.241757e+002  2.229972e+001  3.099451e+001 -3.405416e+000  1.197142e+002
5.4913125000e+009 -9.563802e+000  1.574985e+002 -3.435071e+001  1.251220e+002  2.236385e+001  3.027082e+001 -3.248565e+000  1.199968e+002
5.4914375000e+009 -9.467085e+000  1.581404e+002 -3.505296e+001  1.208500e+002  2.229915e+001  3.152724e+001 -3.614228e+000  1.189333e+002
5.4915625000e+009 -9.457194e+000  1.574960e+002 -3.437159e+001  1.204667e+002  2.240632e+001  3.049952e+001 -3.424369e+000  1.192241e+002
5.4916875000e+009 -9.670437e+000  1.562205e+002 -3.394583e+001  1.186104e+002  2.251036e+001  3.010229e+001 -3.315458e+000  1.190771e+002
5.4918125000e+009 -9.561961e+000  1.571813e+002 -3.448098e+001  1.170247e+002  2.236035e+001  2.967607e+001 -3.400202e+000  1.174938e+002
5.4919375000e+009 -9.471447e+000  1.574600e+002 -3.485077e+001  1.199682e+002  2.239520e+001  2.954623e+001 -3.526849e+000  1.178437e+002
5.4920625000e+009 -9.531561e+000  1.569095e+002 -3.415067e+001  1.178846e+002  2.236142e+001  2.935754e+001 -3.467783e+000  1.170586e+002
5.4921875000e+009 -9.487157e+000  1.567902e+002 -3.419052e+001  1.208071e+002  2.235196e+001  2.905103e+001 -3.488158e+000  1.169650e+002
5.4923125000e+009 -9.620874e+000  1.568341e+002 -3.443605e+001  1.149099e+002  2.244863e+001  2.850667e+001 -3.507786e+000  1.160788e+002
5.4924375000e+009 -9.643839e+000  1.557298e+002 -3.384402e+001  1.164171e+002  2.264335e+001  2.801729e+001 -3.325199e+000  1.172029e+002
5.4925625000e+009 -9.558167e+000  1.570113e+002 -3.441616e+001  1.123756e+002  2.237247e+001  2.816561e+001 -3.579120e+000  1.147280e+002
5.4926875000e+009 -9.559252e+000  1.561876e+002 -3.413505e+001  1.182179e+002  2.234512e+001  2.831383e+001 -3.675546e+000  1.149993e+002
5.4928125000e+009 -9.462030e+000  1.550217e+002 -3.433081e+001  1.157407e+002  2.261561e+001  2.696252e+001 -3.438636e+000  1.155875e+002
5.4929375000e+009 -9.542724e+000  1.558818e+002 -3.469818e+001  1.170295e+002  2.255552e+001  2.737969e+001 -3.660041e+000  1.151977e+002
5.4930625000e+009 -9.648086e+000  1.553974e+002 -3.418285e+001  1.102851e+002  2.243206e+001  2.745488e+001 -3.693582e+000  1.132361e+002
5.4931875000e+009 -9.546513e+000  1.554871e+002 -3.453898e+001  1.121192e+002  2.247974e+001  2.703401e+001 -3.735134e+000  1.132180e+002
5.4933125000e+009 -9.619363e+000  1.551053e+002 -3.419714e+001  1.131702e+002  2.246870e+001  2.652809e+001 -3.687195e+000  1.130203e+002
5.4934375000e+009 -9.538972e+000  1.549005e+002 -3.422316e+001  1.108816e+002  2.248979e+001  2.693567e+001 -3.799406e+000  1.124376e+002
5.4935625000e+009 -9.625430e+000  1.548548e+002 -3.463062e+001  1.107430e+002  2.261459e+001  2.618232e+001 -3.808762e+000  1.130770e+002
5.4936875000e+009 -9.642881e+000  1.546862e+002 -3.373081e+001  1.089064e+002  2.242340e+001  2.662821e+001 -3.862069e+000  1.114154e+002
5.4938125000e+009 -9.557662e+000  1.548259e+002 -3.421598e+001  1.100547e+002  2.233287e+001  2.557400e+001 -3.866980e+000  1.099441e+002
5.4939375000e+009 -9.497879e+000  1.535017e+002 -3.390086e+001  1.157075e+002  2.265040e+001  2.449640e+001 -3.638651e+000  1.122357e+002
5.4940625000e+009 -9.552429e+000  1.543531e+002 -3.453003e+001  1.132757e+002  2.238572e+001  2.529658e+001 -3.955429e+000  1.101354e+002
5.4941875000e+009 -9.551566e+000  1.544666e+002 -3.408345e+001  1.097571e+002  2.254966e+001  2.492433e+001 -3.836038e+000  1.104033e+002
5.4943125000e+009 -9.605059e+000  1.542070e+002 -3.471258e+001  1.045987e+002  2.254405e+001  2.401471e+001 -3.862323e+000  1.089468e+002
5.4944375000e+009 -9.582795e+000  1.535701e+002 -3.429290e+001  1.101373e+002  2.252985e+001  2.428823e+001 -3.949645e+000  1.093108e+002
5.4945625000e+009 -9.566854e+000  1.533340e+002 -3.448319e+001  1.081645e+002  2.253073e+001  2.416975e+001 -3.999006e+000  1.086933e+002
5.4946875000e+009 -9.719513e+000  1.531772e+002 -3.411892e+001  1.037384e+002  2.262203e+001  2.356902e+001 -3.949568e+000  1.082939e+002
5.4948125000e+009 -9.463449e+000  1.530861e+002 -3.474324e+001  1.112299e+002  2.253695e+001  2.328373e+001 -4.051743e+000  1.082454e+002
5.4949375000e+009 -9.636223e+000  1.526659e+002 -3.409022e+001  1.030362e+002  2.249197e+001  2.337345e+001 -4.070353e+000  1.064019e+002
5.4950625000e+009 -9.603889e+000  1.522791e+002 -3.454318e+001  1.074193e+002  2.258325e+001  2.299792e+001 -4.083301e+000  1.074944e+002
5.4951875000e+009 -9.538808e+000  1.519996e+002 -3.499166e+001  1.077102e+002  2.266969e+001  2.249201e+001 -4.131652e+000  1.073773e+002
5.4953125000e+009 -9.735210e+000  1.518314e+002 -3.365260e+001  1.053001e+002  2.247281e+001  2.219954e+001 -3.987719e+000  1.052233e+002
5.4954375000e+009 -9.724880e+000  1.518213e+002 -3.393305e+001  1.026071e+002  2.264632e+001  2.190647e+001 -4.056368e+000  1.056654e+002
5.4955625000e+009 -9.648261e+000  1.508519e+002 -3.378954e+001  1.112347e+002  2.252429e+001  2.224848e+001 -4.175244e+000  1.062071e+002
5.4956875000e+009 -9.536330e+000  1.523834e+002 -3.462169e+001  1.061346e+002  2.245846e+001  2.209536e+001 -4.320821e+000  1.048391e+002
5.4958125000e+009 -9.663257e+000  1.502437e+002 -3.405074e+001  1.083630e+002  2.268721e+001  2.137792e+001 -4.146247e+000  1.060163e+002
5.4959375000e+009 -9.628002e+000  1.510025e+002 -3.447426e+001  1.053289e+002  2.251640e+001  2.137058e+001 -4.324665e+000  1.038807e+002
5.4960625000e+009 -9.730175e+000  1.508811e+002 -3.389585e+001  1.079535e+002  2.255424e+001  2.129116e+001 -4.280253e+000  1.043639e+002
5.4961875000e+009 -9.912546e+000  1.490446e+002 -3.401310e+001  1.008539e+002  2.270343e+001  2.069534e+001 -4.232028e+000  1.032928e+002
5.4963125000e+009 -9.595169e+000  1.499040e+002 -3.437610e+001  1.024163e+002  2.253026e+001  2.075183e+001 -4.403571e+000  1.024040e+002
5.4964375000e+009 -9.593923e+000  1.494856e+002 -3.430577e+001  1.037344e+002  2.257510e+001  2.055232e+001 -4.417080e+000  1.026654e+002
5.4965625000e+009 -9.738582e+000  1.490519e+002 -3.407070e+001  1.024660e+002  2.274313e+001  1.982035e+001 -4.280803e+000  1.028378e+002
5.4966875000e+009 -9.653149e+000  1.501220e+002 -3.462117e+001  1.014849e+002  2.259081e+001  1.956376e+001 -4.441403e+000  1.011180e+002
5.4968125000e+009 -9.965545e+000  1.481821e+002 -3.345230e+001  1.012972e+002  2.258151e+001  1.914197e+001 -4.264951e+000  1.004043e+002
5.4969375000e+009 -9.741319e+000  1.482381e+002 -3.472712e+001  9.757633e+001  2.264202e+001  1.949796e+001 -4.547936e+000  1.003525e+002
5.4970625000e+009 -9.771517e+000  1.485463e+002 -3.473466e+001  1.036304e+002  2.264460e+001  1.928288e+001 -4.621593e+000  1.011182e+002
5.4971875000e+009 -9.633228e+000  1.514787e+002 -3.516150e+001  1.012955e+002  2.259832e+001  1.885061e+001 -4.734512e+000  1.004599e+002
5.4973125000e+009 -9.809816e+000  1.471876e+002 -3.430193e+001  1.048653e+002  2.271322e+001  1.910334e+001 -4.717044e+000  1.011591e+002
5.4974375000e+009 -9.933368e+000  1.474849e+002 -3.508195e+001  9.953251e+001  2.270852e+001  1.839613e+001 -4.744708e+000  9.900069e+001
5.4975625000e+009 -9.471789e+000  1.487223e+002 -3.479580e+001  1.031450e+002  2.255376e+001  1.827320e+001 -4.730800e+000  9.840192e+001
5.4976875000e+009 -1.009422e+001  1.473329e+002 -3.428013e+001  9.232130e+001  2.271691e+001  1.774610e+001 -4.697621e+000  9.759109e+001
5.4978125000e+009 -9.764147e+000  1.480979e+002 -3.501470e+001  9.887391e+001  2.266450e+001  1.786140e+001 -4.789985e+000  9.826342e+001
5.4979375000e+009 -9.715027e+000  1.490206e+002 -3.486130e+001  9.897360e+001  2.261543e+001  1.735117e+001 -4.801926e+000  9.703603e+001
5.4980625000e+009 -9.966425e+000  1.473875e+002 -3.507738e+001  9.617593e+001  2.269267e+001  1.697146e+001 -4.886685e+000  9.683240e+001
5.4981875000e+009 -9.918668e+000  1.458108e+002 -3.411451e+001  9.639017e+001  2.264218e+001  1.688022e+001 -4.740924e+000  9.564639e+001
5.4983125000e+009 -9.804256e+000  1.479081e+002 -3.435075e+001  9.423450e+001  2.261799e+001  1.679372e+001 -4.879702e+000  9.513504e+001
5.4984375000e+009 -9.884836e+000  1.470272e+002 -3.491433e+001  9.592906e+001  2.263793e+001  1.625138e+001 -4.949409e+000  9.575485e+001
5.4985625000e+009 -9.696180e+000  1.474048e+002 -3.478273e+001  9.792036e+001  2.263188e+001  1.605648e+001 -4.857760e+000  9.503372e+001
5.4986875000e+009 -9.833246e+000  1.471378e+002 -3.465670e+001  9.592723e+001  2.259600e+001  1.583111e+001 -4.946298e+000  9.361845e+001
5.4988125000e+009 -9.888067e+000  1.453268e+002 -3.433837e+001  9.585311e+001  2.271970e+001  1.602693e+001 -4.928719e+000  9.435499e+001
5.4989375000e+009 -1.010699e+001  1.451166e+002 -3.449514e+001  9.775911e+001  2.267464e+001  1.539618e+001 -4.981943e+000  9.370033e+001
5.4990625000e+009 -1.021012e+001  1.441553e+002 -3.432223e+001  9.454607e+001  2.271268e+001  1.547684e+001 -4.976010e+000  9.335328e+001
5.4991875000e+009 -9.967443e+000  1.440858e+002 -3.460777e+001  9.399039e+001  2.268013e+001  1.488647e+001 -5.005578e+000  9.229469e+001
5.4993125000e+009 -1.009110e+001  1.435447e+002 -3.475796e+001  9.843643e+001  2.273497e+001  1.480779e+001 -5.017086e+000  9.313419e+001
5.4994375000e+009 -9.899561e+000  1.429278e+002 -3.517502e+001  9.676669e+001  2.269431e+001  1.467616e+001 -5.174545e+000  9.202149e+001
5.4995625000e+009 -9.961390e+000  1.430965e+002 -3.480148e+001  9.567995e+001  2.270160e+001  1.456834e+001 -5.206769e+000  9.206001e+001
5.4996875000e+009 -1.004952e+001  1.418155e+002 -3.461063e+001  9.467279e+001  2.272181e+001  1.416477e+001 -5.114189e+000  9.120959e+001
5.4998125000e+009 -1.000942e+001  1.432316e+002 -3.488607e+001  9.706652e+001  2.267304e+001  1.368472e+001 -5.191812e+000  9.035065e+001
5.4999375000e+009 -1.010573e+001  1.401887e+002 -3.406091e+001  8.966128e+001  2.277180e+001  1.391730e+001 -5.127698e+000  8.980312e+001
5.5000625000e+009 -1.007337e+001  1.423612e+002 -3.406047e+001  9.246745e+001  2.271470e+001  1.340341e+001 -5.144948e+000  8.942645e+001
5.5001875000e+009 -9.955663e+000  1.425818e+002 -3.495681e+001  9.055579e+001  2.269192e+001  1.297806e+001 -5.242379e+000  8.805029e+001
5.5003125000e+009 -9.942724e+000  1.405887e+002 -3.502016e+001  9.212299e+001  2.269572e+001  1.299390e+001 -5.387505e+000  8.846575e+001
5.5004375000e+009 -1.009494e+001  1.403685e+002 -3.463508e+001  9.027847e+001  2.274916e+001  1.264198e+001 -5.290036e+000  8.735634e+001
5.5005625000e+009 -9.958652e+000  1.442208e+002 -3.485565e+001  9.075933e+001  2.264354e+001  1.255847e+001 -5.379104e+000  8.772045e+001
5.5006875000e+009 -1.008001e+001  1.412590e+002 -3.491023e+001  9.386964e+001  2.273524e+001  1.234188e+001 -5.405725e+000  8.747628e+001
5.5008125000e+009 -1.035529e+001  1.410050e+002 -3.412292e+001  8.927728e+001  2.272780e+001  1.192670e+001 -5.300542e+000  8.624287e+001
5.5009375000e+009 -1.020364e+001  1.448426e+002 -3.444839e+001  9.432921e+001  2.267938e+001  1.151245e+001 -5.303628e+000  8.625434e+001
5.5010625000e+009 -1.019352e+001  1.397910e+002 -3.516705e+001  9.348881e+001  2.277122e+001  1.158759e+001 -5.458052e+000  8.605412e+001
5.5011875000e+009 -1.007313e+001  1.386537e+002 -3.501594e+001  9.173917e+001  2.278523e+001  1.159095e+001 -5.500644e+000  8.568970e+001
5.5013125000e+009 -9.978531e+000  1.415938e+002 -3.537337e+001  9.244630e+001  2.270874e+001  1.127994e+001 -5.582384e+000  8.498769e+001
5.5014375000e+009 -1.023918e+001  1.398441e+002 -3.513082e+001  8.587290e+001  2.275178e+001  1.062730e+001 -5.755603e+000  8.427411e+001
5.5015625000e+009 -1.030713e+001  1.385739e+002 -3.475500e+001  8.871032e+001  2.274502e+001  1.082036e+001 -5.577191e+000  8.421162e+001
5.5016875000e+009 -1.008130e+001  1.433924e+002 -3.485009e+001  9.685379e+001  2.272419e+001  1.039902e+001 -5.547373e+000  8.434400e+001
5.5018125000e+009 -1.015528e+001  1.407031e+002 -3.430280e+001  8.792751e+001  2.276201e+001  1.045726e+001 -5.513459e+000  8.249082e+001
5.5019375000e+009 -1.017977e+001  1.386002e+002 -3.515749e+001  8.628674e+001  2.274504e+001  9.948218e+000 -5.780590e+000  8.225732e+001
5.5020625000e+009 -1.032954e+001  1.391457e+002 -3.514137e+001  9.052145e+001  2.277684e+001  1.013423e+001 -5.597987e+000  8.266473e+001
5.5021875000e+009 -1.035185e+001  1.391732e+002 -3.568477e+001  8.812866e+001  2.271939e+001  9.446376e+000 -5.969594e+000  8.204586e+001
5.5023125000e+009 -1.015140e+001  1.401525e+002 -3.483548e+001  8.592696e+001  2.274289e+001  9.454460e+000 -5.716126e+000  8.067950e+001
5.5024375000e+009 -1.034677e+001  1.401688e+002 -3.440257e+001  9.071687e+001  2.275807e+001  9.136261e+000 -5.549160e+000  8.087103e+001
5.5025625000e+009 -1.018052e+001  1.369769e+002 -3.601376e+001  9.076122e+001  2.278858e+001  9.388302e+000 -5.925573e+000  8.112459e+001
5.5026875000e+009 -1.044246e+001  1.381778e+002 -3.483237e+001  8.583428e+001  2.281785e+001  8.649583e+000 -5.753936e+000  7.933041e+001
5.5028125000e+009 -1.051068e+001  1.411432e+002 -3.474239e+001  8.567038e+001  2.277729e+001  8.591044e+000 -5.699027e+000  7.861047e+001
5.5029375000e+009 -1.029933e+001  1.374444e+002 -3.498524e+001  9.134306e+001  2.280446e+001  8.338746e+000 -5.721704e+000  7.929076e+001
5.5030625000e+009 -1.042163e+001  1.363478e+002 -3.583135e+001  8.241288e+001  2.282626e+001  7.953802e+000 -6.143250e+000  7.764204e+001
5.5031875000e+009 -1.055413e+001  1.387786e+002 -3.424915e+001  8.246172e+001  2.277530e+001  8.241063e+000 -5.676243e+000  7.685951e+001
5.5033125000e+009 -1.044649e+001  1.380177e+002 -3.578007e+001  8.661768e+001  2.280486e+001  7.709901e+000 -6.016683e+000  7.730580e+001
5.5034375000e+009 -1.047365e+001  1.372632e+002 -3.565305e+001  8.594958e+001  2.278937e+001  7.237329e+000 -6.072788e+000  7.687834e+001
5.5035625000e+009 -1.065231e+001  1.360577e+002 -3.448382e+001  8.509972e+001  2.288045e+001  7.439126e+000 -5.715039e+000  7.580157e+001
5.5036875000e+009 -1.045641e+001  1.378310e+002 -3.555558e+001  8.750126e+001  2.278132e+001  6.790291e+000 -6.066688e+000  7.618383e+001
5.5038125000e+009 -1.022078e+001  1.361540e+002 -3.525350e+001  8.157236e+001  2.282444e+001  7.359734e+000 -5.995791e+000  7.486319e+001
5.5039375000e+009 -1.053246e+001  1.362298e+002 -3.574018e+001  8.549658e+001  2.283591e+001  6.480640e+000 -6.117676e+000  7.501167e+001
5.5040625000e+009 -1.026799e+001  1.363115e+002 -3.556101e+001  8.209507e+001  2.282241e+001  6.262960e+000 -6.081835e+000  7.403295e+001
5.5041875000e+009 -1.038563e+001  1.344010e+002 -3.515712e+001  7.965526e+001  2.278969e+001  6.424130e+000 -6.057049e+000  7.369299e+001
5.5043125000e+009 -1.076495e+001  1.355536e+002 -3.497282e+001  8.389145e+001  2.282199e+001  5.761637e+000 -5.988794e+000  7.324230e+001
5.5044375000e+009 -1.078230e+001  1.351747e+002 -3.559465e+001  8.160928e+001  2.278868e+001  6.073138e+000 -6.075674e+000  7.303593e+001
5.5045625000e+009 -1.052115e+001  1.353485e+002 -3.593580e+001  8.667909e+001  2.281128e+001  5.474221e+000 -6.197568e+000  7.331937e+001
5.5046875000e+009 -1.064086e+001  1.355445e+002 -3.524471e+001  8.431561e+001  2.278175e+001  4.880658e+000 -6.148550e+000  7.226075e+001
5.5048125000e+009 -1.080880e+001  1.351951e+002 -3.506468e+001  8.164092e+001  2.284817e+001  4.959565e+000 -6.038496e+000  7.109098e+001
5.5049375000e+009 -1.051092e+001  1.342830e+002 -3.527699e+001  8.123843e+001  2.280410e+001  5.436879e+000 -6.045129e+000  7.113555e+001
5.5050625000e+009 -1.106178e+001  1.360580e+002 -3.472649e+001  8.023142e+001  2.275332e+001  4.816574e+000 -5.984162e+000  7.080671e+001
5.5051875000e+009 -1.051108e+001  1.354721e+002 -3.575277e+001  8.125076e+001  2.282089e+001  4.735304e+000 -6.177013e+000  7.037578e+001
5.5053125000e+009 -1.057367e+001  1.325195e+002 -3.540068e+001  8.314571e+001  2.288721e+001  3.800123e+000 -6.223928e+000  6.959474e+001
5.5054375000e+009 -1.076666e+001  1.333620e+002 -3.437943e+001  8.349236e+001  2.286773e+001  4.465605e+000 -5.898191e+000  6.945693e+001
5.5055625000e+009 -1.047448e+001  1.329314e+002 -3.529231e+001  8.346032e+001  2.289250e+001  3.301466e+000 -6.210816e+000  6.874984e+001
5.5056875000e+009 -1.071233e+001  1.331545e+002 -3.575973e+001  8.069531e+001  2.288878e+001  3.135873e+000 -6.282261e+000  6.813064e+001
5.5058125000e+009 -1.062671e+001  1.327319e+002 -3.574862e+001  8.285921e+001  2.280710e+001  3.939692e+000 -6.140380e+000  6.855685e+001
5.5059375000e+009 -1.061396e+001  1.319525e+002 -3.565414e+001  8.214719e+001  2.291097e+001  3.084288e+000 -6.273228e+000  6.750980e+001
5.5060625000e+009 -1.070036e+001  1.319128e+002 -3.528383e+001  7.787752e+001  2.287423e+001  2.516995e+000 -6.251623e+000  6.639693e+001
5.5061875000e+009 -1.060448e+001  1.328743e+002 -3.583730e+001  8.733928e+001  2.289092e+001  3.244810e+000 -6.223702e+000  6.767611e+001
5.5063125000e+009 -1.106328e+001  1.323170e+002 -3.565844e+001  8.174346e+001  2.291690e+001  2.183070e+000 -6.225347e+000  6.604438e+001
5.5064375000e+009 -1.065519e+001  1.302808e+002 -3.535118e+001  7.737650e+001  2.295394e+001  2.277196e+000 -6.208430e+000  6.457405e+001
5.5065625000e+009 -1.057814e+001  1.324098e+002 -3.558986e+001  7.970569e+001  2.285256e+001  2.681923e+000 -6.228594e+000  6.564367e+001
5.5066875000e+009 -1.107196e+001  1.312085e+002 -3.495913e+001  8.334656e+001  2.290319e+001  7.550269e-001 -6.208374e+000  6.475734e+001
5.5068125000e+009 -1.097677e+001  1.298339e+002 -3.572802e+001  8.004185e+001  2.290964e+001  2.087722e+000 -6.180151e+000  6.489931e+001
5.5069375000e+009 -1.106978e+001  1.318119e+002 -3.568029e+001  7.590957e+001  2.284637e+001  1.375601e+000 -6.323922e+000  6.383270e+001
5.5070625000e+009 -1.087593e+001  1.298948e+002 -3.617083e+001  7.857795e+001  2.287734e+001  1.556571e+000 -6.279749e+000  6.369106e+001
5.5071875000e+009 -1.069861e+001  1.293286e+002 -3.569715e+001  8.320621e+001  2.294207e+001  1.356640e+000 -6.237082e+000  6.399291e+001
5.5073125000e+009 -1.078023e+001  1.305445e+002 -3.550648e+001  7.530796e+001  2.287513e+001  5.714515e-001 -6.286808e+000  6.177734e+001
5.5074375000e+009 -1.090230e+001  1.299100e+002 -3.536333e+001  7.811439e+001  2.300323e+001 -3.027537e-001 -6.273937e+000  6.108182e+001
5.5075625000e+009 -1.075070e+001  1.290435e+002 -3.563269e+001  7.866830e+001  2.294390e+001 -9.708990e-002 -6.315438e+000  6.143795e+001
5.5076875000e+009 -1.105631e+001  1.296600e+002 -3.506331e+001  7.818904e+001  2.288324e+001  4.742289e-001 -6.110153e+000  6.134140e+001
5.5078125000e+009 -1.112036e+001  1.290329e+002 -3.568119e+001  7.361419e+001  2.299097e+001 -9.263684e-001 -6.379138e+000  5.956621e+001
5.5079375000e+009 -1.061063e+001  1.276673e+002 -3.548169e+001  7.729515e+001  2.289098e+001  2.914346e-001 -6.222800e+000  6.067257e+001
5.5080625000e+009 -1.105391e+001  1.293842e+002 -3.575952e+001  7.668225e+001  2.292936e+001 -7.567578e-001 -6.295235e+000  5.941980e+001
5.5081875000e+009 -1.105324e+001  1.283500e+002 -3.595337e+001  7.250690e+001  2.292373e+001 -5.536088e-001 -6.311232e+000  5.897892e+001
5.5083125000e+009 -1.091916e+001  1.278217e+002 -3.595079e+001  7.976931e+001  2.294737e+001 -1.017658e+000 -6.297310e+000  5.983129e+001
5.5084375000e+009 -1.099615e+001  1.283403e+002 -3.613943e+001  7.465450e+001  2.290282e+001 -1.093829e+000 -6.351596e+000  5.898012e+001
5.5085625000e+009 -1.127230e+001  1.270162e+002 -3.549017e+001  7.452922e+001  2.291436e+001 -1.314006e+000 -6.243901e+000  5.816357e+001
5.5086875000e+009 -1.076414e+001  1.288086e+002 -3.646611e+001  7.234910e+001  2.286176e+001 -1.436916e+000 -6.472651e+000  5.789687e+001
5.5088125000e+009 -1.090255e+001  1.260356e+002 -3.629271e+001  7.787755e+001  2.297157e+001 -1.660851e+000 -6.346902e+000  5.802082e+001
5.5089375000e+009 -1.105790e+001  1.274535e+002 -3.601165e+001  7.335196e+001  2.292864e+001 -2.156215e+000 -6.410709e+000  5.681287e+001
5.5090625000e+009 -1.079821e+001  1.264503e+002 -3.571858e+001  7.709759e+001  2.297972e+001 -1.879060e+000 -6.221987e+000  5.706092e+001
5.5091875000e+009 -1.109881e+001  1.272140e+002 -3.597915e+001  7.625705e+001  2.298106e+001 -2.787235e+000 -6.266046e+000  5.649049e+001
5.5093125000e+009 -1.109626e+001  1.260831e+002 -3.596333e+001  7.203461e+001  2.298226e+001 -2.352514e+000 -6.301715e+000  5.589233e+001
5.5094375000e+009 -1.103604e+001  1.256701e+002 -3.572099e+001  7.382441e+001  2.306788e+001 -2.852875e+000 -6.213854e+000  5.488647e+001
5.5095625000e+009 -1.115470e+001  1.267808e+002 -3.558676e+001  7.371307e+001  2.290924e+001 -2.431826e+000 -6.187855e+000  5.547498e+001
5.5096875000e+009 -1.098304e+001  1.261909e+002 -3.636456e+001  6.895453e+001  2.299660e+001 -3.384801e+000 -6.420875e+000  5.391565e+001
5.5098125000e+009 -1.104180e+001  1.256320e+002 -3.559679e+001  7.001736e+001  2.298800e+001 -3.511311e+000 -6.242272e+000  5.357129e+001
5.5099375000e+009 -1.120348e+001  1.253116e+002 -3.587289e+001  7.375539e+001  2.294667e+001 -3.870559e+000 -6.269324e+000  5.416941e+001
5.5100625000e+009 -1.106513e+001  1.251518e+002 -3.612904e+001  7.650285e+001  2.297793e+001 -3.981590e+000 -6.261034e+000  5.428948e+001
5.5101875000e+009 -1.094261e+001  1.248427e+002 -3.570562e+001  7.197456e+001  2.298790e+001 -4.002456e+000 -6.227300e+000  5.307982e+001
5.5103125000e+009 -1.129470e+001  1.233355e+002 -3.580989e+001  7.421381e+001  2.299748e+001 -3.760445e+000 -6.162253e+000  5.318880e+001
5.5104375000e+009 -1.122803e+001  1.245698e+002 -3.585327e+001  7.353925e+001  2.308913e+001 -4.741400e+000 -6.223396e+000  5.220661e+001
5.5105625000e+009 -1.098136e+001  1.247881e+002 -3.645167e+001  6.668903e+001  2.295971e+001 -4.015351e+000 -6.368740e+000  5.190969e+001
5.5106875000e+009 -1.090317e+001  1.249144e+002 -3.619853e+001  6.860695e+001  2.302452e+001 -4.967914e+000 -6.286707e+000  5.126736e+001
5.5108125000e+009 -1.110231e+001  1.230876e+002 -3.655479e+001  7.292948e+001  2.307248e+001 -4.908195e+000 -6.256099e+000  5.217292e+001
5.5109375000e+009 -1.115035e+001  1.239140e+002 -3.624677e+001  6.916439e+001  2.321670e+001 -6.110055e+000 -6.271042e+000  4.966223e+001
5.5110625000e+009 -1.111723e+001  1.225541e+002 -3.637294e+001  7.397755e+001  2.307758e+001 -5.196591e+000 -6.240716e+000  5.127784e+001
5.5111875000e+009 -1.104596e+001  1.226470e+002 -3.663502e+001  7.156329e+001  2.295740e+001 -5.387713e+000 -6.317534e+000  5.117648e+001
5.5113125000e+009 -1.118992e+001  1.228847e+002 -3.612597e+001  7.083111e+001  2.323472e+001 -6.036708e+000 -6.142593e+000  4.970383e+001
5.5114375000e+009 -1.126254e+001  1.222074e+002 -3.597180e+001  6.995337e+001  2.301097e+001 -6.538406e+000 -6.187506e+000  4.950557e+001
5.5115625000e+009 -1.122622e+001  1.215390e+002 -3.622431e+001  7.336172e+001  2.306168e+001 -6.358339e+000 -6.150697e+000  4.996972e+001
5.5116875000e+009 -1.114859e+001  1.219593e+002 -3.641915e+001  6.808829e+001  2.317394e+001 -6.846359e+000 -6.252797e+000  4.848819e+001
5.5118125000e+009 -1.102726e+001  1.217885e+002 -3.656699e+001  6.897721e+001  2.307130e+001 -6.635786e+000 -6.187957e+000  4.871116e+001
5.5119375000e+009 -1.116900e+001  1.211701e+002 -3.582438e+001  7.042769e+001  2.309658e+001 -6.903202e+000 -6.091650e+000  4.808532e+001
5.5120625000e+009 -1.112001e+001  1.212648e+002 -3.594604e+001  6.942742e+001  2.316816e+001 -7.305180e+000 -6.084346e+000  4.781526e+001
5.5121875000e+009 -1.121431e+001  1.210760e+002 -3.557607e+001  6.665123e+001  2.298637e+001 -7.809900e+000 -6.079579e+000  4.709460e+001
5.5123125000e+009 -1.116145e+001  1.206308e+002 -3.649038e+001  6.944863e+001  2.314426e+001 -7.651665e+000 -6.171659e+000  4.735730e+001
5.5124375000e+009 -1.123113e+001  1.203981e+002 -3.593834e+001  6.993828e+001  2.327951e+001 -7.933302e+000 -6.018746e+000  4.669131e+001
5.5125625000e+009 -1.119795e+001  1.207455e+002 -3.622374e+001  6.659386e+001  2.311992e+001 -8.191431e+000 -6.091265e+000  4.635277e+001
5.5126875000e+009 -1.114792e+001  1.202253e+002 -3.657694e+001  6.736826e+001  2.318042e+001 -8.085019e+000 -6.145471e+000  4.622085e+001
5.5128125000e+009 -1.123552e+001  1.192059e+002 -3.625405e+001  6.957617e+001  2.319257e+001 -8.499382e+000 -6.044571e+000  4.637864e+001
5.5129375000e+009 -1.110130e+001  1.195855e+002 -3.671443e+001  6.786444e+001  2.319251e+001 -8.594112e+000 -6.123477e+000  4.597187e+001
5.5130625000e+009 -1.118002e+001  1.191366e+002 -3.665007e+001  6.862158e+001  2.306310e+001 -8.933556e+000 -6.149532e+000  4.623925e+001
5.5131875000e+009 -1.120209e+001  1.181794e+002 -3.656832e+001  7.148420e+001  2.325406e+001 -9.163428e+000 -6.066346e+000  4.565639e+001
5.5133125000e+009 -1.116240e+001  1.183307e+002 -3.670384e+001  7.048336e+001  2.314380e+001 -9.198528e+000 -6.133093e+000  4.599919e+001
5.5134375000e+009 -1.107706e+001  1.181204e+002 -3.758784e+001  6.852174e+001  2.313742e+001 -9.420079e+000 -6.231048e+000  4.554228e+001
5.5135625000e+009 -1.122087e+001  1.181778e+002 -3.650853e+001  6.126638e+001  2.320428e+001 -9.564012e+000 -6.195196e+000  4.370590e+001
5.5136875000e+009 -1.124479e+001  1.173557e+002 -3.640891e+001  6.881099e+001  2.317177e+001 -1.000453e+001 -6.009862e+000  4.439278e+001
5.5138125000e+009 -1.119621e+001  1.167857e+002 -3.710774e+001  7.126186e+001  2.320779e+001 -1.000113e+001 -6.105110e+000  4.520023e+001
5.5139375000e+009 -1.131243e+001  1.170704e+002 -3.608841e+001  6.629165e+001  2.327703e+001 -1.017063e+001 -5.999291e+000  4.307968e+001
5.5140625000e+009 -1.127089e+001  1.168366e+002 -3.665348e+001  6.322787e+001  2.324038e+001 -1.023931e+001 -6.147755e+000  4.318174e+001
5.5141875000e+009 -1.128394e+001  1.159481e+002 -3.635943e+001  6.951006e+001  2.325667e+001 -1.081918e+001 -5.997246e+000  4.348977e+001
5.5143125000e+009 -1.121249e+001  1.152010e+002 -3.706097e+001  6.938049e+001  2.325261e+001 -1.108030e+001 -6.095732e+000  4.364219e+001
5.5144375000e+009 -1.125560e+001  1.156046e+002 -3.693038e+001  6.504649e+001  2.315631e+001 -1.113605e+001 -6.114639e+000  4.298666e+001
5.5145625000e+009 -1.123330e+001  1.153345e+002 -3.741936e+001  6.655096e+001  2.326455e+001 -1.132990e+001 -6.163315e+000  4.278152e+001
5.5146875000e+009 -1.136177e+001  1.141114e+002 -3.645019e+001  6.835132e+001  2.333161e+001 -1.152096e+001 -6.011780e+000  4.240986e+001
5.5148125000e+009 -1.139616e+001  1.151991e+002 -3.617535e+001  6.432789e+001  2.327397e+001 -1.171029e+001 -5.993009e+000  4.159606e+001
5.5149375000e+009 -1.122287e+001  1.145652e+002 -3.763166e+001  6.522900e+001  2.325635e+001 -1.207466e+001 -6.179068e+000  4.217760e+001
5.5150625000e+009 -1.118800e+001  1.135859e+002 -3.783211e+001  6.653000e+001  2.331058e+001 -1.207628e+001 -6.229552e+000  4.227228e+001
5.5151875000e+009 -1.126613e+001  1.137187e+002 -3.743885e+001  6.705127e+001  2.326586e+001 -1.242292e+001 -6.106411e+000  4.199055e+001
5.5153125000e+009 -1.132758e+001  1.132885e+002 -3.681519e+001  6.526620e+001  2.329154e+001 -1.275529e+001 -6.063102e+000  4.091834e+001
5.5154375000e+009 -1.133787e+001  1.128280e+002 -3.659063e+001  6.480241e+001  2.329380e+001 -1.294604e+001 -6.054784e+000  4.051197e+001
5.5155625000e+009 -1.119848e+001  1.125919e+002 -3.776296e+001  6.667722e+001  2.327649e+001 -1.321501e+001 -6.167561e+000  4.126513e+001
5.5156875000e+009 -1.121368e+001  1.127588e+002 -3.774755e+001  6.274178e+001  2.331841e+001 -1.342319e+001 -6.194573e+000  4.064835e+001
5.5158125000e+009 -1.134245e+001  1.122426e+002 -3.667675e+001  6.040981e+001  2.328637e+001 -1.371930e+001 -6.075677e+000  3.917482e+001
5.5159375000e+009 -1.131661e+001  1.117530e+002 -3.701261e+001  6.537688e+001  2.330540e+001 -1.384688e+001 -6.053841e+000  4.013920e+001
5.5160625000e+009 -1.134264e+001  1.111996e+002 -3.702528e+001  6.789344e+001  2.332568e+001 -1.426063e+001 -5.951394e+000  3.996301e+001
5.5161875000e+009 -1.127548e+001  1.105491e+002 -3.720059e+001  6.398297e+001  2.336871e+001 -1.429887e+001 -6.048659e+000  3.942065e+001
5.5163125000e+009 -1.127893e+001  1.107050e+002 -3.766151e+001  6.517764e+001  2.333412e+001 -1.454105e+001 -6.024383e+000  3.999532e+001
5.5164375000e+009 -1.124967e+001  1.104484e+002 -3.788563e+001  6.411685e+001  2.335506e+001 -1.458983e+001 -6.102554e+000  3.973427e+001
5.5165625000e+009 -1.122409e+001  1.096198e+002 -3.772263e+001  6.362898e+001  2.338963e+001 -1.470993e+001 -6.138290e+000  3.923294e+001
5.5166875000e+009 -1.117785e+001  1.099056e+002 -3.748564e+001  6.417105e+001  2.336397e+001 -1.503248e+001 -6.060460e+000  3.918028e+001
5.5168125000e+009 -1.126067e+001  1.103564e+002 -3.695052e+001  6.299648e+001  2.335022e+001 -1.515636e+001 -5.984511e+000  3.893409e+001
5.5169375000e+009 -1.116408e+001  1.096894e+002 -3.752511e+001  6.350291e+001  2.339323e+001 -1.550602e+001 -6.093360e+000  3.831973e+001
5.5170625000e+009 -1.129413e+001  1.090637e+002 -3.717262e+001  6.300776e+001  2.339557e+001 -1.584070e+001 -6.046596e+000  3.775740e+001
5.5171875000e+009 -1.123940e+001  1.100799e+002 -3.759196e+001  5.806001e+001  2.340425e+001 -1.590579e+001 -6.155242e+000  3.748758e+001
5.5173125000e+009 -1.125020e+001  1.090264e+002 -3.788600e+001  6.110017e+001  2.342528e+001 -1.615106e+001 -6.128920e+000  3.728041e+001
5.5174375000e+009 -1.110691e+001  1.078718e+002 -3.762626e+001  6.319821e+001  2.339788e+001 -1.646447e+001 -6.081443e+000  3.802884e+001
5.5175625000e+009 -1.123154e+001  1.084850e+002 -3.743256e+001  6.066358e+001  2.339897e+001 -1.643584e+001 -6.038188e+000  3.736417e+001
5.5176875000e+009 -1.129061e+001  1.079394e+002 -3.746764e+001  6.366384e+001  2.343360e+001 -1.652863e+001 -6.010209e+000  3.747923e+001
5.5178125000e+009 -1.129888e+001  1.083955e+002 -3.786519e+001  6.180236e+001  2.342403e+001 -1.696876e+001 -6.083463e+000  3.709824e+001
5.5179375000e+009 -1.125901e+001  1.075544e+002 -3.753371e+001  6.503319e+001  2.345949e+001 -1.746757e+001 -5.974132e+000  3.672618e+001
5.5180625000e+009 -1.116568e+001  1.058015e+002 -3.715115e+001  6.377895e+001  2.349524e+001 -1.761918e+001 -5.997631e+000  3.582128e+001
5.5181875000e+009 -1.116536e+001  1.061348e+002 -3.767149e+001  6.247666e+001  2.344342e+001 -1.742723e+001 -5.949861e+000  3.715905e+001
5.5183125000e+009 -1.123420e+001  1.069299e+002 -3.826173e+001  6.224232e+001  2.345226e+001 -1.775085e+001 -6.072584e+000  3.679891e+001
5.5184375000e+009 -1.120189e+001  1.063971e+002 -3.783447e+001  6.133839e+001  2.346932e+001 -1.834443e+001 -6.140781e+000  3.597958e+001
5.5185625000e+009 -1.112452e+001  1.065022e+002 -3.779006e+001  5.883537e+001  2.347429e+001 -1.826630e+001 -6.066761e+000  3.548507e+001
5.5186875000e+009 -1.121040e+001  1.055749e+002 -3.779787e+001  6.280520e+001  2.350625e+001 -1.823684e+001 -5.944886e+000  3.602138e+001
5.5188125000e+009 -1.109865e+001  1.054965e+002 -3.764328e+001  6.434765e+001  2.343932e+001 -1.903696e+001 -6.106327e+000  3.589349e+001
5.5189375000e+009 -1.109773e+001  1.049510e+002 -3.866071e+001  6.082492e+001  2.351033e+001 -1.871529e+001 -6.069748e+000  3.625948e+001
5.5190625000e+009 -1.127020e+001  1.060035e+002 -3.777826e+001  5.853614e+001  2.345823e+001 -1.915567e+001 -6.077655e+000  3.524109e+001
5.5191875000e+009 -1.091877e+001  1.039159e+002 -3.839112e+001  6.254733e+001  2.346088e+001 -1.940778e+001 -6.180616e+000  3.631889e+001
5.5193125000e+009 -1.105048e+001  1.042989e+002 -3.838178e+001  6.330979e+001  2.355193e+001 -1.950027e+001 -6.039638e+000  3.555359e+001
5.5194375000e+009 -1.120236e+001  1.045665e+002 -3.802896e+001  6.070117e+001  2.354407e+001 -1.975311e+001 -5.978797e+000  3.439954e+001
5.5195625000e+009 -1.104962e+001  1.041678e+002 -3.864565e+001  5.984030e+001  2.356397e+001 -2.007345e+001 -6.084363e+000  3.476178e+001
5.5196875000e+009 -1.105979e+001  1.042768e+002 -3.779694e+001  5.785154e+001  2.355624e+001 -2.021873e+001 -5.995087e+000  3.386589e+001
5.5198125000e+009 -1.110633e+001  1.041930e+002 -3.816109e+001  6.115582e+001  2.353696e+001 -1.999300e+001 -5.895531e+000  3.530703e+001
5.5199375000e+009 -1.117138e+001  1.029481e+002 -3.779144e+001  6.270801e+001  2.357817e+001 -2.093262e+001 -5.998844e+000  3.370488e+001
5.5200625000e+009 -1.105849e+001  1.029255e+002 -3.845583e+001  6.221566e+001  2.356458e+001 -2.075245e+001 -6.035317e+000  3.469083e+001
5.5201875000e+009 -1.123971e+001  1.034871e+002 -3.815759e+001  5.870226e+001  2.353782e+001 -2.074360e+001 -5.986314e+000  3.465256e+001
5.5203125000e+009 -1.087007e+001  1.025651e+002 -3.854910e+001  6.044109e+001  2.361970e+001 -2.114955e+001 -6.028721e+000  3.399432e+001
5.5204375000e+009 -1.096595e+001  1.020032e+002 -3.856101e+001  5.726745e+001  2.362188e+001 -2.063981e+001 -5.870436e+000  3.455423e+001
5.5205625000e+009 -1.095007e+001  1.025425e+002 -3.865432e+001  5.828381e+001  2.357832e+001 -2.162428e+001 -6.093260e+000  3.432533e+001
5.5206875000e+009 -1.087471e+001  1.012988e+002 -3.811193e+001  5.720344e+001  2.361536e+001 -2.182078e+001 -6.014714e+000  3.307681e+001
5.5208125000e+009 -1.105442e+001  1.017715e+002 -3.897788e+001  5.550832e+001  2.359931e+001 -2.197687e+001 -6.121701e+000  3.394108e+001
5.5209375000e+009 -1.089902e+001  1.015163e+002 -3.889220e+001  6.054886e+001  2.365219e+001 -2.200619e+001 -5.843032e+000  3.397058e+001
5.5210625000e+009 -1.107656e+001  1.009238e+002 -3.835894e+001  6.212437e+001  2.364204e+001 -2.276170e+001 -6.022850e+000  3.327595e+001
5.5211875000e+009 -1.083517e+001  1.003911e+002 -3.857793e+001  6.056975e+001  2.361963e+001 -2.294133e+001 -6.103833e+000  3.376445e+001
5.5213125000e+009 -1.107396e+001  1.004503e+002 -3.875278e+001  6.195375e+001  2.365390e+001 -2.273927e+001 -5.895014e+000  3.341205e+001
5.5214375000e+009 -1.090412e+001  1.004527e+002 -3.884115e+001  6.000060e+001  2.368067e+001 -2.354265e+001 -6.142705e+000  3.226626e+001
5.5215625000e+009 -1.091634e+001  9.972086e+001 -3.788585e+001  5.783417e+001  2.365149e+001 -2.376081e+001 -5.903162e+000  3.187086e+001
5.5216875000e+009 -1.087265e+001  1.006179e+002 -3.857009e+001  5.707185e+001  2.370576e+001 -2.335575e+001 -5.923285e+000  3.231517e+001
5.5218125000e+009 -1.076569e+001  9.898061e+001 -3.872777e+001  6.200491e+001  2.374154e+001 -2.366773e+001 -5.947467e+000  3.248774e+001
5.5219375000e+009 -1.067337e+001  9.896264e+001 -3.921732e+001  6.024688e+001  2.370409e+001 -2.322758e+001 -5.847118e+000  3.370721e+001
5.5220625000e+009 -1.098092e+001  9.874577e+001 -3.867717e+001  5.783093e+001  2.366769e+001 -2.422987e+001 -5.967119e+000  3.259553e+001
5.5221875000e+009 -1.088577e+001  9.824271e+001 -3.834005e+001  6.297912e+001  2.380732e+001 -2.495375e+001 -5.877333e+000  3.081967e+001
5.5223125000e+009 -1.081378e+001  9.822161e+001 -3.913667e+001  5.756931e+001  2.375385e+001 -2.490556e+001 -6.032461e+000  3.181529e+001
5.5224375000e+009 -1.096092e+001  9.847705e+001 -3.907244e+001  5.913406e+001  2.372558e+001 -2.485189e+001 -5.964390e+000  3.220674e+001
5.5225625000e+009 -1.066279e+001  9.797647e+001 -3.854535e+001  5.894069e+001  2.376208e+001 -2.503897e+001 -5.980184e+000  3.172826e+001
5.5226875000e+009 -1.081791e+001  9.797480e+001 -3.909857e+001  5.863285e+001  2.373221e+001 -2.492388e+001 -5.861774e+000  3.229711e+001
5.5228125000e+009 -1.080544e+001  9.785751e+001 -3.952164e+001  5.430881e+001  2.370695e+001 -2.516943e+001 -6.000347e+000  3.268533e+001
5.5229375000e+009 -1.069025e+001  9.774209e+001 -3.867152e+001  5.371007e+001  2.373043e+001 -2.570561e+001 -6.036988e+000  3.149388e+001
5.5230625000e+009 -1.066377e+001  9.767110e+001 -3.913111e+001  5.425248e+001  2.376556e+001 -2.591665e+001 -6.013170e+000  3.123457e+001
5.5231875000e+009 -1.081101e+001  9.758048e+001 -3.922263e+001  5.365257e+001  2.373772e+001 -2.581096e+001 -5.998521e+000  3.165494e+001
5.5233125000e+009 -1.076168e+001  9.718427e+001 -3.898186e+001  5.746786e+001  2.374900e+001 -2.657641e+001 -6.033020e+000  3.124296e+001
5.5234375000e+009 -1.065831e+001  9.636212e+001 -3.935534e+001  5.729133e+001  2.375309e+001 -2.675455e+001 -6.044278e+000  3.153696e+001
5.5235625000e+009 -1.079115e+001  9.683093e+001 -3.904936e+001  5.263865e+001  2.379850e+001 -2.645364e+001 -5.942987e+000  3.083222e+001
5.5236875000e+009 -1.069843e+001  9.661561e+001 -3.852534e+001  5.288398e+001  2.383090e+001 -2.743545e+001 -6.038580e+000  2.928246e+001
5.5238125000e+009 -1.064876e+001  9.587904e+001 -3.930111e+001  5.426984e+001  2.378721e+001 -2.724265e+001 -6.053788e+000  3.103546e+001
5.5239375000e+009 -1.080167e+001  9.528612e+001 -3.924380e+001  5.832520e+001  2.382785e+001 -2.749626e+001 -5.863756e+000  3.059610e+001
5.5240625000e+009 -1.066201e+001  9.521317e+001 -3.912444e+001  5.777935e+001  2.384644e+001 -2.807484e+001 -5.968801e+000  2.994510e+001
5.5241875000e+009 -1.047337e+001  9.629506e+001 -3.931171e+001  5.204883e+001  2.379334e+001 -2.736611e+001 -5.963646e+000  3.110850e+001
5.5243125000e+009 -1.062429e+001  9.480737e+001 -3.905671e+001  5.707469e+001  2.393297e+001 -2.849149e+001 -5.957570e+000  2.934404e+001
5.5244375000e+009 -1.066999e+001  9.492449e+001 -3.904145e+001  5.464730e+001  2.393278e+001 -2.877902e+001 -6.010032e+000  2.858628e+001
5.5245625000e+009 -1.053699e+001  9.509460e+001 -3.917969e+001  5.705670e+001  2.391478e+001 -2.916967e+001 -6.058641e+000  2.884062e+001
5.5246875000e+009 -1.063571e+001  9.429588e+001 -3.954464e+001  5.784228e+001  2.389234e+001 -2.905628e+001 -5.985734e+000  2.964861e+001
5.5248125000e+009 -1.054115e+001  9.459809e+001 -3.914989e+001  5.497407e+001  2.381947e+001 -2.881622e+001 -5.924978e+000  3.061777e+001
5.5249375000e+009 -1.043905e+001  9.470858e+001 -3.981716e+001  5.212946e+001  2.393565e+001 -2.950365e+001 -6.063805e+000  2.901944e+001
5.5250625000e+009 -1.061666e+001  9.373840e+001 -3.924473e+001  5.332978e+001  2.386406e+001 -2.936868e+001 -5.995361e+000  2.961659e+001
5.5251875000e+009 -1.039333e+001  9.434130e+001 -3.955412e+001  5.245752e+001  2.382565e+001 -2.927856e+001 -5.982711e+000  3.051091e+001
5.5253125000e+009 -1.040848e+001  9.348154e+001 -3.977362e+001  5.693958e+001  2.380405e+001 -3.002256e+001 -6.101606e+000  3.090996e+001
5.5254375000e+009 -1.045474e+001  9.317888e+001 -3.988050e+001  5.766247e+001  2.379197e+001 -3.046825e+001 -6.101629e+000  3.055636e+001
5.5255625000e+009 -1.042886e+001  9.362280e+001 -3.959903e+001  5.210199e+001  2.392021e+001 -3.031119e+001 -6.041403e+000  2.893560e+001
5.5256875000e+009 -1.030975e+001  9.335373e+001 -3.985548e+001  5.533982e+001  2.384776e+001 -3.082317e+001 -6.196529e+000  3.000714e+001
5.5258125000e+009 -1.046345e+001  9.257843e+001 -3.946808e+001  5.994150e+001  2.380830e+001 -3.092961e+001 -6.048160e+000  3.025051e+001
5.5259375000e+009 -1.031073e+001  9.309402e+001 -3.982935e+001  5.509688e+001  2.391222e+001 -3.117329e+001 -6.162702e+000  2.862563e+001
5.5260625000e+009 -1.032279e+001  9.258335e+001 -3.989951e+001  5.354210e+001  2.388718e+001 -3.158371e+001 -6.280393e+000  2.875208e+001
5.5261875000e+009 -1.034268e+001  9.301906e+001 -3.874924e+001  5.318554e+001  2.385029e+001 -3.101272e+001 -5.997908e+000  2.872512e+001
5.5263125000e+009 -1.022174e+001  9.255417e+001 -4.009825e+001  5.214526e+001  2.396946e+001 -3.207949e+001 -6.257175e+000  2.733399e+001
5.5264375000e+009 -1.020620e+001  9.294058e+001 -4.013952e+001  5.455294e+001  2.392546e+001 -3.164613e+001 -6.057800e+000  2.821420e+001
5.5265625000e+009 -1.018089e+001  9.215374e+001 -3.996441e+001  5.449510e+001  2.395640e+001 -3.171090e+001 -6.072521e+000  2.840478e+001
5.5266875000e+009 -1.019456e+001  9.198289e+001 -3.967007e+001  5.766389e+001  2.403160e+001 -3.248133e+001 -6.009188e+000  2.626055e+001
5.5268125000e+009 -1.012422e+001  9.178653e+001 -3.999603e+001  5.703141e+001  2.389474e+001 -3.198946e+001 -6.092680e+000  2.916648e+001
5.5269375000e+009 -1.016912e+001  9.157877e+001 -4.028588e+001  5.732983e+001  2.390335e+001 -3.271986e+001 -6.205928e+000  2.842365e+001
5.5270625000e+009 -1.011991e+001  9.211902e+001 -3.977168e+001  5.751019e+001  2.394631e+001 -3.286321e+001 -6.116015e+000  2.734783e+001
5.5271875000e+009 -9.995127e+000  9.237423e+001 -4.007589e+001  4.992061e+001  2.389368e+001 -3.268623e+001 -6.251674e+000  2.750074e+001
5.5273125000e+009 -1.003981e+001  9.082063e+001 -4.028935e+001  5.795697e+001  2.385268e+001 -3.323963e+001 -6.221328e+000  2.889603e+001
5.5274375000e+009 -1.002949e+001  9.181522e+001 -3.947580e+001  5.316819e+001  2.388851e+001 -3.350973e+001 -6.263337e+000  2.685357e+001
5.5275625000e+009 -9.998500e+000  9.202822e+001 -4.024845e+001  5.213830e+001  2.398487e+001 -3.380234e+001 -6.355246e+000  2.583401e+001
5.5276875000e+009 -9.977108e+000  9.093035e+001 -4.012606e+001  5.576131e+001  2.383596e+001 -3.398910e+001 -6.402606e+000  2.779353e+001
5.5278125000e+009 -9.895229e+000  9.157855e+001 -4.024968e+001  5.091555e+001  2.394925e+001 -3.394759e+001 -6.286482e+000  2.639252e+001
5.5279375000e+009 -9.887986e+000  9.123283e+001 -4.025990e+001  5.433760e+001  2.389155e+001 -3.462431e+001 -6.498677e+000  2.698626e+001
5.5280625000e+009 -9.901716e+000  9.103632e+001 -4.006501e+001  5.169229e+001  2.381555e+001 -3.470648e+001 -6.580230e+000  2.741096e+001
5.5281875000e+009 -9.857203e+000  9.095009e+001 -4.020158e+001  5.317564e+001  2.384538e+001 -3.469489e+001 -6.405483e+000  2.755753e+001
5.5283125000e+009 -9.833065e+000  9.053716e+001 -3.990352e+001  5.185558e+001  2.391957e+001 -3.517668e+001 -6.409467e+000  2.584127e+001
5.5284375000e+009 -9.889578e+000  9.078670e+001 -4.021982e+001  5.468691e+001  2.390692e+001 -3.461523e+001 -6.212746e+000  2.688827e+001
5.5285625000e+009 -9.813065e+000  9.080253e+001 -4.023461e+001  5.409211e+001  2.393300e+001 -3.558677e+001 -6.489602e+000  2.540804e+001
5.5286875000e+009 -9.798237e+000  9.087867e+001 -3.996450e+001  5.440173e+001  2.395317e+001 -3.579180e+001 -6.408773e+000  2.471551e+001
5.5288125000e+009 -9.787915e+000  9.026953e+001 -4.017457e+001  5.547697e+001  2.385760e+001 -3.572334e+001 -6.379041e+000  2.656481e+001
5.5289375000e+009 -9.723518e+000  9.068385e+001 -4.033823e+001  4.841171e+001  2.396881e+001 -3.618049e+001 -6.519511e+000  2.408721e+001
5.5290625000e+009 -9.690738e+000  9.050507e+001 -3.997080e+001  4.947932e+001  2.386355e+001 -3.648098e+001 -6.836625e+000  2.546328e+001
5.5291875000e+009 -9.698315e+000  8.994960e+001 -4.018871e+001  5.638239e+001  2.377879e+001 -3.614956e+001 -6.510793e+000  2.778450e+001
5.5293125000e+009 -9.636886e+000  8.986879e+001 -4.111759e+001  5.437496e+001  2.384090e+001 -3.664972e+001 -6.599028e+000  2.672716e+001
5.5294375000e+009 -9.665654e+000  8.994977e+001 -3.994421e+001  5.295955e+001  2.386480e+001 -3.685686e+001 -6.606421e+000  2.568540e+001
5.5295625000e+009 -9.619199e+000  8.965732e+001 -4.071709e+001  5.249278e+001  2.381264e+001 -3.694378e+001 -6.692869e+000  2.652105e+001
5.5296875000e+009 -9.578362e+000  8.984666e+001 -4.107185e+001  5.135814e+001  2.391908e+001 -3.738447e+001 -6.642223e+000  2.491229e+001
5.5298125000e+009 -9.595739e+000  8.948105e+001 -4.064556e+001  5.446333e+001  2.391821e+001 -3.745525e+001 -6.705661e+000  2.474689e+001
5.5299375000e+009 -9.552787e+000  8.937791e+001 -4.087699e+001  5.264222e+001  2.385935e+001 -3.765729e+001 -6.657522e+000  2.522078e+001
5.5300625000e+009 -9.583845e+000  8.928375e+001 -4.063845e+001  5.690980e+001  2.393235e+001 -3.810043e+001 -6.600489e+000  2.335401e+001
5.5301875000e+009 -9.558602e+000  8.931615e+001 -4.036753e+001  5.459365e+001  2.386594e+001 -3.823458e+001 -6.705887e+000  2.405781e+001
5.5303125000e+009 -9.521923e+000  8.940573e+001 -4.052026e+001  5.351965e+001  2.386428e+001 -3.833998e+001 -6.773908e+000  2.466780e+001
5.5304375000e+009 -9.475423e+000  8.942663e+001 -4.034543e+001  4.822392e+001  2.389060e+001 -3.861231e+001 -6.816619e+000  2.401653e+001
5.5305625000e+009 -9.483491e+000  8.909890e+001 -4.076016e+001  5.150747e+001  2.391738e+001 -3.880851e+001 -6.790972e+000  2.269691e+001
5.5306875000e+009 -9.464062e+000  8.911849e+001 -4.029778e+001  5.159289e+001  2.382106e+001 -3.911891e+001 -6.897850e+000  2.458425e+001
5.5308125000e+009 -9.397717e+000  8.921603e+001 -4.048280e+001  4.711933e+001  2.381163e+001 -3.904948e+001 -6.898006e+000  2.486637e+001
5.5309375000e+009 -9.425010e+000  8.873029e+001 -4.093828e+001  5.418812e+001  2.388035e+001 -3.918883e+001 -6.800047e+000  2.399012e+001
5.5310625000e+009 -9.415174e+000  8.859319e+001 -4.118080e+001  5.752865e+001  2.373736e+001 -3.965399e+001 -6.962389e+000  2.607972e+001
5.5311875000e+009 -9.394087e+000  8.859277e+001 -4.081702e+001  5.200134e+001  2.385413e+001 -4.002255e+001 -6.845015e+000  2.318338e+001
5.5313125000e+009 -9.388055e+000  8.836995e+001 -4.073924e+001  5.416982e+001  2.385802e+001 -4.008231e+001 -6.826598e+000  2.395612e+001
5.5314375000e+009 -9.348264e+000  8.872366e+001 -4.071064e+001  5.166446e+001  2.380618e+001 -4.023339e+001 -7.056317e+000  2.370228e+001
5.5315625000e+009 -9.344116e+000  8.837028e+001 -4.103141e+001  5.178871e+001  2.383423e+001 -4.038580e+001 -7.012717e+000  2.370732e+001
5.5316875000e+009 -9.318565e+000  8.801154e+001 -4.094463e+001  5.454103e+001  2.391287e+001 -4.064401e+001 -6.772156e+000  2.139159e+001
5.5318125000e+009 -9.303075e+000  8.838215e+001 -4.115602e+001  4.678782e+001  2.384028e+001 -4.079871e+001 -7.067398e+000  2.333819e+001
5.5319375000e+009 -9.276278e+000  8.810935e+001 -4.107857e+001  5.197055e+001  2.386039e+001 -4.106027e+001 -6.945281e+000  2.310261e+001
5.5320625000e+009 -9.260426e+000  8.799799e+001 -4.086315e+001  5.110512e+001  2.379299e+001 -4.129041e+001 -7.069349e+000  2.286402e+001
5.5321875000e+009 -9.260600e+000  8.782343e+001 -4.144902e+001  5.159904e+001  2.380403e+001 -4.149999e+001 -7.139670e+000  2.416869e+001
5.5323125000e+009 -9.237579e+000  8.771802e+001 -4.165475e+001  5.386719e+001  2.385115e+001 -4.204506e+001 -6.902000e+000  2.117874e+001
5.5324375000e+009 -9.187538e+000  8.782914e+001 -4.154015e+001  4.813823e+001  2.387347e+001 -4.203830e+001 -6.993214e+000  2.092446e+001
5.5325625000e+009 -9.211418e+000  8.763709e+001 -4.100766e+001  5.395008e+001  2.381577e+001 -4.216048e+001 -7.066033e+000  2.123142e+001
5.5326875000e+009 -9.179676e+000  8.783119e+001 -4.101536e+001  4.723053e+001  2.379033e+001 -4.263009e+001 -7.234910e+000  2.093674e+001
5.5328125000e+009 -9.140602e+000  8.742908e+001 -4.137783e+001  4.915062e+001  2.374974e+001 -4.290790e+001 -7.447402e+000  2.128423e+001
5.5329375000e+009 -9.160028e+000  8.754682e+001 -4.078423e+001  5.008931e+001  2.375694e+001 -4.306696e+001 -7.235515e+000  2.005673e+001
5.5330625000e+009 -9.143244e+000  8.735746e+001 -4.126826e+001  5.029079e+001  2.373480e+001 -4.321177e+001 -7.232107e+000  2.019328e+001
5.5331875000e+009 -9.140226e+000  8.724364e+001 -4.075958e+001  5.010014e+001  2.378957e+001 -4.327319e+001 -7.346317e+000  2.085177e+001
5.5333125000e+009 -9.130986e+000  8.731878e+001 -4.097009e+001  5.229525e+001  2.377403e+001 -4.361619e+001 -7.292353e+000  2.053707e+001
5.5334375000e+009 -9.130952e+000  8.715881e+001 -4.068232e+001  5.421014e+001  2.375628e+001 -4.359604e+001 -7.397824e+000  2.113913e+001
5.5335625000e+009 -9.082766e+000  8.702297e+001 -4.122823e+001  4.999453e+001  2.372363e+001 -4.402524e+001 -7.464345e+000  2.045456e+001
5.5336875000e+009 -9.111685e+000  8.690849e+001 -4.115699e+001  5.568351e+001  2.373558e+001 -4.416103e+001 -7.117672e+000  1.957455e+001
5.5338125000e+009 -9.049603e+000  8.682861e+001 -4.185291e+001  5.353841e+001  2.374975e+001 -4.418824e+001 -7.527729e+000  2.173090e+001
5.5339375000e+009 -9.072177e+000  8.678418e+001 -4.137373e+001  5.208118e+001  2.374467e+001 -4.447751e+001 -7.473895e+000  2.069999e+001
5.5340625000e+009 -9.042508e+000  8.643223e+001 -4.264136e+001  5.727705e+001  2.373910e+001 -4.506691e+001 -7.364208e+000  2.078699e+001
5.5341875000e+009 -9.028250e+000  8.647182e+001 -4.117883e+001  5.209061e+001  2.370082e+001 -4.504042e+001 -7.431724e+000  1.954537e+001
5.5343125000e+009 -8.995176e+000  8.635254e+001 -4.203643e+001  5.025216e+001  2.366788e+001 -4.515674e+001 -7.487440e+000  1.980264e+001
5.5344375000e+009 -8.964578e+000  8.653742e+001 -4.166310e+001  4.931853e+001  2.370986e+001 -4.549084e+001 -7.314430e+000  1.938411e+001
5.5345625000e+009 -8.982930e+000  8.647636e+001 -4.128824e+001  5.169303e+001  2.370197e+001 -4.594995e+001 -7.472773e+000  1.901209e+001
5.5346875000e+009 -9.025463e+000  8.619705e+001 -4.061023e+001  5.576762e+001  2.366185e+001 -4.595091e+001 -7.513925e+000  1.923398e+001
5.5348125000e+009 -8.926674e+000  8.640918e+001 -4.226340e+001  5.036720e+001  2.364502e+001 -4.614132e+001 -7.392128e+000  1.919181e+001
5.5349375000e+009 -8.936028e+000  8.631784e+001 -4.162305e+001  4.582713e+001  2.365937e+001 -4.620148e+001 -7.761465e+000  1.937614e+001
5.5350625000e+009 -8.948225e+000  8.614562e+001 -4.155849e+001  4.971477e+001  2.360325e+001 -4.670123e+001 -7.660363e+000  1.854041e+001
5.5351875000e+009 -8.912838e+000  8.623776e+001 -4.198242e+001  4.916101e+001  2.364250e+001 -4.720383e+001 -7.563492e+000  1.898534e+001
5.5353125000e+009 -8.927727e+000  8.592670e+001 -4.160045e+001  5.455781e+001  2.365971e+001 -4.679006e+001 -7.825436e+000  1.899385e+001
5.5354375000e+009 -8.926605e+000  8.594308e+001 -4.159533e+001  5.432283e+001  2.361368e+001 -4.717769e+001 -7.705914e+000  1.855593e+001
5.5355625000e+009 -8.906834e+000  8.588882e+001 -4.262783e+001  5.064553e+001  2.360385e+001 -4.747237e+001 -7.678738e+000  1.915438e+001
5.5356875000e+009 -8.884859e+000  8.586524e+001 -4.207395e+001  5.258629e+001  2.358506e+001 -4.768016e+001 -7.728412e+000  1.854060e+001
5.5358125000e+009 -8.894682e+000  8.565599e+001 -4.175041e+001  5.228822e+001  2.359739e+001 -4.781492e+001 -7.752208e+000  1.816987e+001
5.5359375000e+009 -8.882743e+000  8.554077e+001 -4.219343e+001  5.015569e+001  2.358644e+001 -4.851145e+001 -7.754465e+000  1.822607e+001
5.5360625000e+009 -8.866779e+000  8.565349e+001 -4.162706e+001  5.174088e+001  2.349418e+001 -4.820417e+001 -7.912194e+000  1.736759e+001
5.5361875000e+009 -8.852402e+000  8.549343e+001 -4.140421e+001  5.001566e+001  2.350802e+001 -4.820694e+001 -7.990347e+000  1.750408e+001
5.5363125000e+009 -8.829973e+000  8.546579e+001 -4.186618e+001  5.335291e+001  2.353775e+001 -4.873676e+001 -7.700680e+000  1.815601e+001
5.5364375000e+009 -8.809134e+000  8.576172e+001 -4.158634e+001  4.849229e+001  2.352359e+001 -4.863802e+001 -8.007249e+000  1.699229e+001
5.5365625000e+009 -8.848409e+000  8.532173e+001 -4.216644e+001  5.391484e+001  2.358259e+001 -4.832942e+001 -8.092582e+000  1.801031e+001
5.5366875000e+009 -8.805545e+000  8.554716e+001 -4.162902e+001  5.191153e+001  2.347785e+001 -4.938026e+001 -7.940163e+000  1.689454e+001
5.5368125000e+009 -8.782515e+000  8.527014e+001 -4.168657e+001  4.851538e+001  2.341534e+001 -4.968643e+001 -8.056471e+000  1.684922e+001
5.5369375000e+009 -8.774849e+000  8.515110e+001 -4.149947e+001  4.937401e+001  2.349509e+001 -4.954139e+001 -8.132086e+000  1.643976e+001
5.5370625000e+009 -8.807424e+000  8.547018e+001 -4.190485e+001  5.564861e+001  2.344440e+001 -4.984238e+001 -7.972979e+000  1.708852e+001
5.5371875000e+009 -8.766471e+000  8.495597e+001 -4.172073e+001  5.308751e+001  2.348521e+001 -5.005188e+001 -8.044183e+000  1.626912e+001
5.5373125000e+009 -8.753580e+000  8.488110e+001 -4.186686e+001  5.104579e+001  2.348236e+001 -5.040765e+001 -8.197924e+000  1.598569e+001
5.5374375000e+009 -8.760202e+000  8.531469e+001 -4.140084e+001  5.182672e+001  2.339327e+001 -5.128736e+001 -8.041112e+000  1.595054e+001
5.5375625000e+009 -8.743018e+000  8.491508e+001 -4.189098e+001  5.151908e+001  2.344255e+001 -5.098092e+001 -8.180148e+000  1.590515e+001
5.5376875000e+009 -8.705401e+000  8.473941e+001 -4.268913e+001  4.995708e+001  2.334732e+001 -5.086781e+001 -8.239824e+000  1.645292e+001
5.5378125000e+009 -8.741079e+000  8.488531e+001 -4.159812e+001  5.571590e+001  2.336733e+001 -5.138525e+001 -8.158897e+000  1.588897e+001
5.5379375000e+009 -8.704678e+000  8.457048e+001 -4.235848e+001  5.127637e+001  2.335163e+001 -5.113474e+001 -8.313777e+000  1.552429e+001
5.5380625000e+009 -8.708099e+000  8.452519e+001 -4.230087e+001  5.160746e+001  2.339635e+001 -5.164919e+001 -8.326847e+000  1.524948e+001
5.5381875000e+009 -8.688826e+000  8.500555e+001 -4.182879e+001  4.976285e+001  2.343637e+001 -5.198529e+001 -8.262094e+000  1.522660e+001
5.5383125000e+009 -8.685679e+000  8.505558e+001 -4.172845e+001  4.865131e+001  2.337277e+001 -5.174962e+001 -8.414884e+000  1.453287e+001
5.5384375000e+009 -8.658025e+000  8.462971e+001 -4.247736e+001  5.151627e+001  2.334453e+001 -5.174515e+001 -8.444737e+000  1.432642e+001
5.5385625000e+009 -8.662081e+000  8.481408e+001 -4.224945e+001  4.816767e+001  2.329997e+001 -5.232941e+001 -8.460806e+000  1.455402e+001
5.5386875000e+009 -8.638868e+000  8.505582e+001 -4.282557e+001  5.174481e+001  2.336574e+001 -5.210315e+001 -8.406741e+000  1.421522e+001
5.5388125000e+009 -8.647870e+000  8.468115e+001 -4.226739e+001  5.016046e+001  2.325484e+001 -5.274598e+001 -8.539369e+000  1.322550e+001
5.5389375000e+009 -8.629705e+000  8.516718e+001 -4.235683e+001  4.974138e+001  2.335978e+001 -5.214127e+001 -8.504951e+000  1.317055e+001
5.5390625000e+009 -8.611657e+000  8.488921e+001 -4.270280e+001  4.658046e+001  2.337380e+001 -5.291209e+001 -8.553224e+000  1.330958e+001
5.5391875000e+009 -8.574346e+000  8.442966e+001 -4.263639e+001  4.815502e+001  2.330757e+001 -5.377159e+001 -8.603291e+000  1.262076e+001
5.5393125000e+009 -8.597953e+000  8.487225e+001 -4.239101e+001  4.890237e+001  2.328962e+001 -5.384276e+001 -8.523067e+000  1.312783e+001
5.5394375000e+009 -8.589024e+000  8.484991e+001 -4.245547e+001  5.092057e+001  2.323956e+001 -5.282307e+001 -8.574470e+000  1.208053e+001
5.5395625000e+009 -8.524536e+000  8.471445e+001 -4.205787e+001  5.012820e+001  2.323931e+001 -5.292031e+001 -8.562339e+000  1.158841e+001
5.5396875000e+009 -8.580388e+000  8.519038e+001 -4.243351e+001  4.998258e+001  2.323706e+001 -5.413667e+001 -8.569264e+000  1.189971e+001
5.5398125000e+009 -8.540781e+000  8.489684e+001 -4.225576e+001  5.171433e+001  2.322759e+001 -5.424900e+001 -8.622677e+000  1.103946e+001
5.5399375000e+009 -8.552209e+000  8.473978e+001 -4.220577e+001  4.936068e+001  2.323532e+001 -5.411135e+001 -8.672145e+000  1.056564e+001
5.5400625000e+009 -8.525979e+000  8.494172e+001 -4.275760e+001  5.177579e+001  2.321887e+001 -5.434711e+001 -8.689950e+000  1.111526e+001
5.5401875000e+009 -8.496164e+000  8.477853e+001 -4.227141e+001  5.069353e+001  2.324351e+001 -5.518397e+001 -8.769006e+000  1.046492e+001
5.5403125000e+009 -8.514498e+000  8.481178e+001 -4.210154e+001  5.001761e+001  2.312165e+001 -5.416994e+001 -8.726358e+000  1.012143e+001
5.5404375000e+009 -8.517163e+000  8.507574e+001 -4.208538e+001  4.724511e+001  2.313378e+001 -5.460395e+001 -8.740003e+000  9.926744e+000
5.5405625000e+009 -8.522699e+000  8.522425e+001 -4.227197e+001  4.812047e+001  2.316659e+001 -5.489426e+001 -8.869961e+000  9.813376e+000
5.5406875000e+009 -8.490208e+000  8.459623e+001 -4.316616e+001  4.465242e+001  2.316766e+001 -5.515503e+001 -8.832444e+000  9.817643e+000
5.5408125000e+009 -8.481104e+000  8.494659e+001 -4.280656e+001  4.637511e+001  2.313662e+001 -5.576510e+001 -8.863585e+000  9.774417e+000
5.5409375000e+009 -8.499471e+000  8.489803e+001 -4.287925e+001  5.259962e+001  2.312989e+001 -5.540860e+001 -8.746119e+000  9.544298e+000
5.5410625000e+009 -8.463973e+000  8.476504e+001 -4.243327e+001  4.796424e+001  2.300703e+001 -5.546597e+001 -8.880548e+000  8.891749e+000
5.5411875000e+009 -8.473450e+000  8.497157e+001 -4.211525e+001  4.846880e+001  2.311704e+001 -5.603788e+001 -8.915496e+000  8.449450e+000
5.5413125000e+009 -8.459411e+000  8.502337e+001 -4.234915e+001  4.862279e+001  2.308615e+001 -5.595401e+001 -8.927860e+000  8.490007e+000
5.5414375000e+009 -8.469403e+000  8.494505e+001 -4.228731e+001  5.286058e+001  2.313064e+001 -5.640892e+001 -8.892104e+000  7.562977e+000
5.5415625000e+009 -8.464037e+000  8.516035e+001 -4.167501e+001  4.554520e+001  2.310744e+001 -5.625755e+001 -8.928909e+000  6.968225e+000
5.5416875000e+009 -8.497850e+000  8.531799e+001 -4.204088e+001  5.329881e+001  2.303299e+001 -5.605594e+001 -8.797011e+000  7.074724e+000
5.5418125000e+009 -8.419147e+000  8.497807e+001 -4.189698e+001  4.535093e+001  2.298982e+001 -5.601782e+001 -8.984118e+000  6.927911e+000
5.5419375000e+009 -8.435219e+000  8.487101e+001 -4.259900e+001  5.143559e+001  2.300487e+001 -5.687672e+001 -8.919929e+000  6.908800e+000
5.5420625000e+009 -8.432998e+000  8.502194e+001 -4.221423e+001  4.626457e+001  2.298596e+001 -5.711698e+001 -9.062038e+000  6.163342e+000
5.5421875000e+009 -8.451934e+000  8.497794e+001 -4.241536e+001  5.169526e+001  2.297044e+001 -5.675629e+001 -8.957030e+000  6.227062e+000
5.5423125000e+009 -8.413330e+000  8.506946e+001 -4.229916e+001  4.407665e+001  2.296493e+001 -5.747438e+001 -9.114176e+000  5.918990e+000
5.5424375000e+009 -8.408514e+000  8.483651e+001 -4.302106e+001  4.789709e+001  2.290833e+001 -5.741970e+001 -9.101757e+000  6.640167e+000
5.5425625000e+009 -8.399999e+000  8.502190e+001 -4.249851e+001  4.725542e+001  2.287517e+001 -5.790833e+001 -9.133105e+000  5.577032e+000
5.5426875000e+009 -8.393343e+000  8.479474e+001 -4.305273e+001  4.679670e+001  2.302429e+001 -5.790147e+001 -9.080732e+000  5.168054e+000
5.5428125000e+009 -8.421488e+000  8.511382e+001 -4.192000e+001  4.659121e+001  2.292477e+001 -5.780396e+001 -9.082756e+000  5.152315e+000
5.5429375000e+009 -8.382226e+000  8.472498e+001 -4.255262e+001  4.713019e+001  2.282646e+001 -5.823200e+001 -9.099422e+000  5.297591e+000
5.5430625000e+009 -8.400324e+000  8.505742e+001 -4.283561e+001  4.979884e+001  2.292082e+001 -5.808891e+001 -9.050220e+000  4.837005e+000
5.5431875000e+009 -8.407264e+000  8.501875e+001 -4.255794e+001  4.671487e+001  2.286036e+001 -5.859867e+001 -9.190732e+000  5.062602e+000
5.5433125000e+009 -8.368840e+000  8.483031e+001 -4.252251e+001  4.533718e+001  2.279876e+001 -5.869738e+001 -9.149911e+000  4.467857e+000
5.5434375000e+009 -8.383716e+000  8.496408e+001 -4.255779e+001  4.700320e+001  2.285702e+001 -5.858005e+001 -9.132121e+000  4.357601e+000
5.5435625000e+009 -8.393113e+000  8.509321e+001 -4.251590e+001  4.830276e+001  2.289672e+001 -5.910861e+001 -9.158722e+000  3.394094e+000
5.5436875000e+009 -8.367379e+000  8.485440e+001 -4.320076e+001  4.670103e+001  2.282802e+001 -5.937840e+001 -9.235165e+000  4.070767e+000
5.5438125000e+009 -8.384643e+000  8.497604e+001 -4.273114e+001  5.110301e+001  2.286240e+001 -5.909568e+001 -9.173857e+000  3.814440e+000
5.5439375000e+009 -8.361128e+000  8.500703e+001 -4.197911e+001  4.854441e+001  2.282457e+001 -5.958707e+001 -9.180996e+000  2.731025e+000
5.5440625000e+009 -8.350751e+000  8.481320e+001 -4.333542e+001  5.004976e+001  2.281356e+001 -6.011502e+001 -9.311690e+000  2.973773e+000
5.5441875000e+009 -8.361162e+000  8.495345e+001 -4.233575e+001  4.514717e+001  2.280774e+001 -5.984045e+001 -9.342221e+000  2.527033e+000
5.5443125000e+009 -8.354361e+000  8.495451e+001 -4.273222e+001  4.484875e+001  2.280839e+001 -5.989023e+001 -9.172891e+000  2.281034e+000
5.5444375000e+009 -8.331936e+000  8.482198e+001 -4.318657e+001  4.770994e+001  2.278173e+001 -5.990731e+001 -9.198152e+000  2.400880e+000
5.5445625000e+009 -8.333529e+000  8.476711e+001 -4.393686e+001  5.027551e+001  2.284626e+001 -5.999135e+001 -9.199600e+000  2.437555e+000
5.5446875000e+009 -8.352996e+000  8.484946e+001 -4.299415e+001  4.599816e+001  2.283220e+001 -6.047911e+001 -9.164121e+000  1.587404e+000
5.5448125000e+009 -8.335676e+000  8.478977e+001 -4.324533e+001  4.882141e+001  2.273014e+001 -6.066979e+001 -9.275935e+000  1.981876e+000
5.5449375000e+009 -8.333586e+000  8.491000e+001 -4.285898e+001  4.575049e+001  2.274721e+001 -6.045452e+001 -9.297942e+000  1.390174e+000
5.5450625000e+009 -8.343645e+000  8.491933e+001 -4.280894e+001  5.030793e+001  2.265710e+001 -6.140619e+001 -9.451628e+000  1.977038e+000
5.5451875000e+009 -8.316790e+000  8.465308e+001 -4.348777e+001  4.700698e+001  2.264649e+001 -6.141235e+001 -9.475567e+000  2.153554e+000
5.5453125000e+009 -8.325235e+000  8.489172e+001 -4.258414e+001  4.199434e+001  2.275322e+001 -6.095884e+001 -9.322862e+000  7.418720e-001
5.5454375000e+009 -8.313622e+000  8.489572e+001 -4.252791e+001  4.749866e+001  2.270144e+001 -6.153553e+001 -9.275142e+000 -3.137952e-001
5.5455625000e+009 -8.329119e+000  8.477805e+001 -4.268578e+001  4.886698e+001  2.265811e+001 -6.172504e+001 -9.288353e+000  1.187036e+000
5.5456875000e+009 -8.325914e+000  8.479843e+001 -4.270027e+001  4.875027e+001  2.266669e+001 -6.166790e+001 -9.349839e+000  2.418503e-001
5.5458125000e+009 -8.309924e+000  8.489680e+001 -4.352349e+001  4.295644e+001  2.269975e+001 -6.200772e+001 -9.437784e+000  8.248491e-001
5.5459375000e+009 -8.300786e+000  8.470215e+001 -4.247126e+001  4.172673e+001  2.265080e+001 -6.214080e+001 -9.359775e+000 -3.423512e-001
5.5460625000e+009 -8.308595e+000  8.479604e+001 -4.258789e+001  4.899831e+001  2.264695e+001 -6.216591e+001 -9.385391e+000 -2.015741e-001
5.5461875000e+009 -8.315908e+000  8.479314e+001 -4.301421e+001  4.839993e+001  2.262928e+001 -6.233804e+001 -9.255610e+000 -2.998929e-001
5.5463125000e+009 -8.294543e+000  8.482362e+001 -4.281591e+001  3.862687e+001  2.262652e+001 -6.259195e+001 -9.494342e+000 -7.005642e-001
