# Hz  S  DB  R  50
! ADVANTEST Corporation R3860A
! Date: Wed Apr 11 19:52:53 2007
5.3463125000e+009 -5.165475e+000  3.995641e+000 -3.619453e+001 -3.323560e+001  2.755810e+001 -1.728259e+002 -5.244819e+000  6.523313e+001
5.3464375000e+009 -5.124955e+000  3.902662e+000 -3.596326e+001 -3.379918e+001  2.758524e+001 -1.731239e+002 -5.278059e+000  6.538369e+001
5.3465625000e+009 -5.055100e+000  3.291940e+000 -3.645256e+001 -2.607995e+001  2.747235e+001 -1.732307e+002 -5.417329e+000  6.475678e+001
5.3466875000e+009 -5.043286e+000  3.343297e+000 -3.597121e+001 -3.188650e+001  2.747731e+001 -1.729180e+002 -5.363771e+000  6.526212e+001
5.3468125000e+009 -4.992078e+000  3.140197e+000 -3.610388e+001 -3.114959e+001  2.750775e+001 -1.737452e+002 -5.463404e+000  6.514838e+001
5.3469375000e+009 -4.950125e+000  2.936768e+000 -3.608068e+001 -3.054116e+001  2.755401e+001 -1.740923e+002 -5.488041e+000  6.550228e+001
5.3470625000e+009 -4.944512e+000  2.786986e+000 -3.582443e+001 -3.043610e+001  2.747270e+001 -1.748716e+002 -5.529449e+000  6.525513e+001
5.3471875000e+009 -4.928587e+000  2.580346e+000 -3.542434e+001 -2.871025e+001  2.748177e+001 -1.748665e+002 -5.614848e+000  6.545880e+001
5.3473125000e+009 -4.897669e+000  2.663037e+000 -3.581480e+001 -3.192577e+001  2.759819e+001 -1.750989e+002 -5.639217e+000  6.555232e+001
5.3474375000e+009 -4.788841e+000  2.543602e+000 -3.634182e+001 -3.446037e+001  2.747782e+001 -1.755293e+002 -5.596308e+000  6.529016e+001
5.3475625000e+009 -4.810223e+000  2.288552e+000 -3.537195e+001 -3.489395e+001  2.746627e+001 -1.755811e+002 -5.654605e+000  6.574184e+001
5.3476875000e+009 -4.769502e+000  2.080310e+000 -3.580123e+001 -3.189594e+001  2.755307e+001 -1.760035e+002 -5.736041e+000  6.568848e+001
5.3478125000e+009 -4.712132e+000  1.917680e+000 -3.575064e+001 -3.071759e+001  2.737056e+001 -1.764130e+002 -5.800989e+000  6.545806e+001
5.3479375000e+009 -4.714768e+000  1.742009e+000 -3.527753e+001 -3.259385e+001  2.747824e+001 -1.765829e+002 -5.808462e+000  6.601329e+001
5.3480625000e+009 -4.658225e+000  1.741519e+000 -3.586257e+001 -3.355645e+001  2.751266e+001 -1.767113e+002 -5.869508e+000  6.561373e+001
5.3481875000e+009 -4.612846e+000  1.608079e+000 -3.551225e+001 -3.537955e+001  2.745687e+001 -1.774156e+002 -5.829539e+000  6.593390e+001
5.3483125000e+009 -4.586270e+000  1.208829e+000 -3.567271e+001 -3.186957e+001  2.751621e+001 -1.769158e+002 -5.973718e+000  6.589772e+001
5.3484375000e+009 -4.553572e+000  1.198494e+000 -3.549727e+001 -3.370322e+001  2.746980e+001 -1.776652e+002 -5.989323e+000  6.587215e+001
5.3485625000e+009 -4.469865e+000  1.010126e+000 -3.585521e+001 -3.409191e+001  2.726134e+001 -1.783587e+002 -5.902478e+000  6.568105e+001
5.3486875000e+009 -4.460058e+000  8.034349e-001 -3.565995e+001 -3.324884e+001  2.747334e+001 -1.780821e+002 -6.112835e+000  6.582394e+001
5.3488125000e+009 -4.448062e+000  6.410738e-001 -3.534062e+001 -3.440348e+001  2.757691e+001 -1.781385e+002 -6.100594e+000  6.640693e+001
5.3489375000e+009 -4.346855e+000  4.390420e-001 -3.578446e+001 -3.629124e+001  2.738678e+001 -1.790793e+002 -6.076745e+000  6.591036e+001
5.3490625000e+009 -4.341585e+000  3.850384e-001 -3.564864e+001 -3.500564e+001  2.729298e+001 -1.792472e+002 -6.158879e+000  6.576860e+001
5.3491875000e+009 -4.334485e+000  2.733519e-002 -3.525197e+001 -3.107023e+001  2.747952e+001  1.796869e+002 -6.247192e+000  6.672639e+001
5.3493125000e+009 -4.259482e+000  1.062721e-001 -3.561179e+001 -3.724932e+001  2.738418e+001  1.799865e+002 -6.201529e+000  6.618877e+001
5.3494375000e+009 -4.217320e+000 -3.253419e-001 -3.597710e+001 -3.618849e+001  2.737745e+001 -1.799668e+002 -6.244018e+000  6.620203e+001
5.3495625000e+009 -4.210211e+000 -1.777845e-001 -3.522591e+001 -3.839525e+001  2.742057e+001  1.797433e+002 -6.315021e+000  6.652826e+001
5.3496875000e+009 -4.190551e+000 -4.210414e-001 -3.520288e+001 -3.484563e+001  2.735873e+001  1.787775e+002 -6.369310e+000  6.688109e+001
5.3498125000e+009 -4.121801e+000 -5.125812e-001 -3.519888e+001 -3.607133e+001  2.736913e+001  1.792963e+002 -6.426426e+000  6.635184e+001
5.3499375000e+009 -4.098995e+000 -8.906038e-001 -3.578789e+001 -3.400200e+001  2.758349e+001  1.791956e+002 -6.535551e+000  6.695676e+001
5.3500625000e+009 -4.070500e+000 -8.443086e-001 -3.503552e+001 -3.675402e+001  2.736906e+001  1.784561e+002 -6.451623e+000  6.690999e+001
5.3501875000e+009 -4.032265e+000 -1.051942e+000 -3.549195e+001 -3.751847e+001  2.738149e+001  1.780186e+002 -6.470275e+000  6.668085e+001
5.3503125000e+009 -4.060047e+000 -1.275296e+000 -3.484087e+001 -3.329212e+001  2.750321e+001  1.785981e+002 -6.616727e+000  6.759758e+001
5.3504375000e+009 -3.916538e+000 -1.317707e+000 -3.533851e+001 -3.514091e+001  2.718647e+001  1.774128e+002 -6.554451e+000  6.648378e+001
5.3505625000e+009 -3.924187e+000 -1.264288e+000 -3.578290e+001 -3.739166e+001  2.739403e+001  1.778605e+002 -6.631899e+000  6.672981e+001
5.3506875000e+009 -3.828944e+000 -1.549242e+000 -3.541503e+001 -3.672104e+001  2.737976e+001  1.776005e+002 -6.684559e+000  6.686262e+001
5.3508125000e+009 -3.826654e+000 -1.562703e+000 -3.532637e+001 -3.789711e+001  2.724942e+001  1.776041e+002 -6.690325e+000  6.653819e+001
5.3509375000e+009 -3.764609e+000 -1.795738e+000 -3.524893e+001 -3.699920e+001  2.731373e+001  1.779214e+002 -6.778310e+000  6.657777e+001
5.3510625000e+009 -3.713979e+000 -1.796911e+000 -3.480518e+001 -3.646243e+001  2.731727e+001  1.767944e+002 -6.788733e+000  6.737230e+001
5.3511875000e+009 -3.691241e+000 -1.832168e+000 -3.494181e+001 -3.711842e+001  2.727982e+001  1.758196e+002 -6.726949e+000  6.755510e+001
5.3513125000e+009 -3.613758e+000 -1.868965e+000 -3.510355e+001 -3.870845e+001  2.734454e+001  1.765737e+002 -6.821730e+000  6.727158e+001
5.3514375000e+009 -3.589673e+000 -1.876736e+000 -3.511051e+001 -4.190131e+001  2.729445e+001  1.767518e+002 -6.908494e+000  6.677145e+001
5.3515625000e+009 -3.539990e+000 -2.035422e+000 -3.496737e+001 -3.851667e+001  2.725385e+001  1.747457e+002 -6.717919e+000  6.791922e+001
5.3516875000e+009 -3.431204e+000 -2.250556e+000 -3.504784e+001 -3.908706e+001  2.731690e+001  1.754738e+002 -6.938588e+000  6.757462e+001
5.3518125000e+009 -3.450678e+000 -2.686315e+000 -3.489420e+001 -3.869590e+001  2.722536e+001  1.751130e+002 -6.887353e+000  6.770157e+001
5.3519375000e+009 -3.382102e+000 -2.378230e+000 -3.470647e+001 -4.180260e+001  2.728160e+001  1.753455e+002 -6.953604e+000  6.762682e+001
5.3520625000e+009 -3.356503e+000 -2.653389e+000 -3.507361e+001 -3.735578e+001  2.722624e+001  1.742107e+002 -7.015548e+000  6.793053e+001
5.3521875000e+009 -3.309611e+000 -2.413271e+000 -3.455053e+001 -3.883738e+001  2.722097e+001  1.749768e+002 -7.058937e+000  6.767016e+001
5.3523125000e+009 -3.253246e+000 -2.754037e+000 -3.472793e+001 -3.745345e+001  2.718689e+001  1.742294e+002 -7.100936e+000  6.785678e+001
5.3524375000e+009 -3.132615e+000 -2.903141e+000 -3.539199e+001 -4.004667e+001  2.721989e+001  1.747607e+002 -7.166839e+000  6.727889e+001
5.3525625000e+009 -3.197235e+000 -2.980376e+000 -3.489085e+001 -4.192080e+001  2.724233e+001  1.745146e+002 -7.194031e+000  6.765399e+001
5.3526875000e+009 -3.083791e+000 -3.228268e+000 -3.512663e+001 -4.250402e+001  2.715235e+001  1.735469e+002 -7.129986e+000  6.765653e+001
5.3528125000e+009 -3.065024e+000 -3.104643e+000 -3.432105e+001 -4.135652e+001  2.718803e+001  1.738189e+002 -7.212547e+000  6.819103e+001
5.3529375000e+009 -3.049650e+000 -3.328853e+000 -3.476154e+001 -4.145898e+001  2.718364e+001  1.733345e+002 -7.324812e+000  6.809467e+001
5.3530625000e+009 -2.956910e+000 -3.536561e+000 -3.504630e+001 -4.065495e+001  2.716949e+001  1.733386e+002 -7.285510e+000  6.812932e+001
5.3531875000e+009 -2.900201e+000 -3.593388e+000 -3.450372e+001 -4.098008e+001  2.711573e+001  1.729245e+002 -7.324081e+000  6.796432e+001
5.3533125000e+009 -2.888407e+000 -3.728907e+000 -3.500219e+001 -4.128285e+001  2.712243e+001  1.717749e+002 -7.242289e+000  6.868611e+001
5.3534375000e+009 -2.843029e+000 -3.953912e+000 -3.442049e+001 -4.345486e+001  2.711796e+001  1.722427e+002 -7.315352e+000  6.850970e+001
5.3535625000e+009 -2.749945e+000 -4.060883e+000 -3.484502e+001 -4.184940e+001  2.708250e+001  1.722332e+002 -7.361403e+000  6.806514e+001
5.3536875000e+009 -2.776824e+000 -4.022954e+000 -3.443045e+001 -4.248800e+001  2.710164e+001  1.729022e+002 -7.494859e+000  6.773893e+001
5.3538125000e+009 -2.706549e+000 -4.134387e+000 -3.448550e+001 -4.033160e+001  2.708238e+001  1.716335e+002 -7.465593e+000  6.878006e+001
5.3539375000e+009 -2.658727e+000 -4.364368e+000 -3.472998e+001 -4.222178e+001  2.708499e+001  1.715986e+002 -7.484378e+000  6.848761e+001
5.3540625000e+009 -2.650113e+000 -4.905311e+000 -3.496327e+001 -4.173447e+001  2.709957e+001  1.710593e+002 -7.506763e+000  6.899852e+001
5.3541875000e+009 -2.582784e+000 -4.190928e+000 -3.439757e+001 -3.977957e+001  2.702184e+001  1.704255e+002 -7.514525e+000  6.956309e+001
5.3543125000e+009 -2.520310e+000 -4.478620e+000 -3.432256e+001 -4.307141e+001  2.703238e+001  1.700768e+002 -7.430301e+000  6.939359e+001
5.3544375000e+009 -2.508347e+000 -4.742237e+000 -3.462005e+001 -4.184378e+001  2.704762e+001  1.705624e+002 -7.635581e+000  6.879118e+001
5.3545625000e+009 -2.445613e+000 -4.630263e+000 -3.481161e+001 -4.210666e+001  2.698144e+001  1.702976e+002 -7.539199e+000  6.839485e+001
5.3546875000e+009 -2.375496e+000 -5.043172e+000 -3.468724e+001 -4.247047e+001  2.700764e+001  1.699352e+002 -7.701642e+000  6.911559e+001
5.3548125000e+009 -2.392092e+000 -5.171845e+000 -3.491364e+001 -4.446335e+001  2.707387e+001  1.700382e+002 -7.710729e+000  6.939848e+001
5.3549375000e+009 -2.349528e+000 -4.853770e+000 -3.438630e+001 -4.212215e+001  2.696750e+001  1.694509e+002 -7.708151e+000  6.905544e+001
5.3550625000e+009 -2.263159e+000 -5.051903e+000 -3.452422e+001 -4.023174e+001  2.697388e+001  1.689294e+002 -7.630365e+000  7.009374e+001
5.3551875000e+009 -2.248746e+000 -5.483120e+000 -3.439485e+001 -4.556233e+001  2.695554e+001  1.687275e+002 -7.645336e+000  6.946110e+001
5.3553125000e+009 -2.198181e+000 -5.339752e+000 -3.409005e+001 -4.013021e+001  2.696228e+001  1.689966e+002 -7.725660e+000  6.997220e+001
5.3554375000e+009 -2.190723e+000 -6.016418e+000 -3.454954e+001 -4.481564e+001  2.693630e+001  1.686327e+002 -7.726365e+000  6.945859e+001
5.3555625000e+009 -2.136001e+000 -5.631880e+000 -3.470475e+001 -4.127925e+001  2.695746e+001  1.678354e+002 -7.807567e+000  7.089610e+001
5.3556875000e+009 -2.093744e+000 -6.121310e+000 -3.472969e+001 -4.582041e+001  2.692231e+001  1.686507e+002 -7.841871e+000  6.884342e+001
5.3558125000e+009 -2.062622e+000 -5.936213e+000 -3.393628e+001 -4.464990e+001  2.687340e+001  1.671814e+002 -7.583487e+000  7.058608e+001
5.3559375000e+009 -2.053242e+000 -6.425848e+000 -3.396576e+001 -4.357514e+001  2.688353e+001  1.675750e+002 -7.766862e+000  7.045660e+001
5.3560625000e+009 -1.983466e+000 -6.477624e+000 -3.490664e+001 -4.529966e+001  2.685877e+001  1.675390e+002 -7.858183e+000  6.918332e+001
5.3561875000e+009 -1.929817e+000 -6.372710e+000 -3.398057e+001 -4.378713e+001  2.689971e+001  1.673740e+002 -7.881051e+000  7.028333e+001
5.3563125000e+009 -1.961243e+000 -6.627891e+000 -3.474396e+001 -4.281470e+001  2.683979e+001  1.670636e+002 -8.028326e+000  6.996539e+001
5.3564375000e+009 -1.869697e+000 -6.488293e+000 -3.421811e+001 -4.762538e+001  2.683421e+001  1.669940e+002 -7.799294e+000  6.966811e+001
5.3565625000e+009 -1.859163e+000 -6.582111e+000 -3.436596e+001 -4.410800e+001  2.680463e+001  1.663978e+002 -7.967079e+000  7.016318e+001
5.3566875000e+009 -1.803647e+000 -6.860487e+000 -3.363926e+001 -4.350446e+001  2.683643e+001  1.663266e+002 -7.878590e+000  7.161347e+001
5.3568125000e+009 -1.771742e+000 -7.094333e+000 -3.427343e+001 -4.562373e+001  2.680058e+001  1.659747e+002 -7.996385e+000  7.070136e+001
5.3569375000e+009 -1.758958e+000 -7.525229e+000 -3.411499e+001 -4.706072e+001  2.683635e+001  1.655226e+002 -7.784834e+000  7.163631e+001
5.3570625000e+009 -1.719888e+000 -7.331381e+000 -3.411095e+001 -4.531467e+001  2.679503e+001  1.655515e+002 -8.017858e+000  7.089666e+001
5.3571875000e+009 -1.706056e+000 -7.092522e+000 -3.444677e+001 -4.589633e+001  2.678388e+001  1.656674e+002 -8.049356e+000  7.083627e+001
5.3573125000e+009 -1.655290e+000 -7.824649e+000 -3.398816e+001 -4.569837e+001  2.680191e+001  1.648360e+002 -7.917774e+000  7.209059e+001
5.3574375000e+009 -1.605382e+000 -7.500612e+000 -3.339997e+001 -4.700705e+001  2.679259e+001  1.648409e+002 -7.934484e+000  7.188456e+001
5.3575625000e+009 -1.612688e+000 -7.998475e+000 -3.430182e+001 -4.761567e+001  2.678472e+001  1.646703e+002 -8.039750e+000  7.179070e+001
5.3576875000e+009 -1.554536e+000 -7.694929e+000 -3.402414e+001 -4.525180e+001  2.678636e+001  1.647226e+002 -7.980175e+000  7.199299e+001
5.3578125000e+009 -1.487930e+000 -8.386199e+000 -3.409408e+001 -5.036563e+001  2.674973e+001  1.643917e+002 -8.085143e+000  7.142844e+001
5.3579375000e+009 -1.565764e+000 -7.967138e+000 -3.403572e+001 -4.296288e+001  2.675342e+001  1.642349e+002 -8.149672e+000  7.252543e+001
5.3580625000e+009 -1.479283e+000 -7.473022e+000 -3.390397e+001 -4.131671e+001  2.675234e+001  1.640586e+002 -8.150000e+000  7.328059e+001
5.3581875000e+009 -1.421325e+000 -8.128443e+000 -3.400918e+001 -4.666032e+001  2.671514e+001  1.637368e+002 -8.112308e+000  7.155446e+001
5.3583125000e+009 -1.391599e+000 -8.416384e+000 -3.375446e+001 -4.875509e+001  2.672368e+001  1.636421e+002 -8.111366e+000  7.166582e+001
5.3584375000e+009 -1.378769e+000 -8.234523e+000 -3.431071e+001 -4.747831e+001  2.668347e+001  1.632995e+002 -8.227576e+000  7.258636e+001
5.3585625000e+009 -1.349426e+000 -8.349524e+000 -3.446938e+001 -4.841706e+001  2.670886e+001  1.631679e+002 -8.151741e+000  7.111022e+001
5.3586875000e+009 -1.307975e+000 -8.960941e+000 -3.385966e+001 -4.810587e+001  2.665599e+001  1.630431e+002 -8.198545e+000  7.213121e+001
5.3588125000e+009 -1.338295e+000 -8.541220e+000 -3.424796e+001 -4.890637e+001  2.668402e+001  1.630299e+002 -8.334859e+000  7.283259e+001
5.3589375000e+009 -1.221513e+000 -8.642917e+000 -3.350120e+001 -4.918623e+001  2.666385e+001  1.622920e+002 -8.097420e+000  7.154503e+001
5.3590625000e+009 -1.272053e+000 -8.759279e+000 -3.414747e+001 -4.665260e+001  2.666234e+001  1.623236e+002 -8.289990e+000  7.343649e+001
5.3591875000e+009 -1.221508e+000 -8.747072e+000 -3.411093e+001 -4.888382e+001  2.663490e+001  1.618161e+002 -8.260215e+000  7.280891e+001
5.3593125000e+009 -1.197067e+000 -9.305690e+000 -3.430833e+001 -4.923217e+001  2.663173e+001  1.618244e+002 -8.267642e+000  7.199989e+001
5.3594375000e+009 -1.170771e+000 -9.185012e+000 -3.428711e+001 -4.977574e+001  2.661327e+001  1.614958e+002 -8.318612e+000  7.333436e+001
5.3595625000e+009 -1.096017e+000 -9.111961e+000 -3.378021e+001 -4.989958e+001  2.659656e+001  1.612744e+002 -8.339005e+000  7.390577e+001
5.3596875000e+009 -1.106915e+000 -9.300170e+000 -3.439930e+001 -5.142458e+001  2.658679e+001  1.613345e+002 -8.430512e+000  7.264413e+001
5.3598125000e+009 -1.062418e+000 -9.219193e+000 -3.371758e+001 -4.304931e+001  2.658981e+001  1.609076e+002 -8.312140e+000  7.318557e+001
5.3599375000e+009 -9.862619e-001 -9.355927e+000 -3.436328e+001 -4.639184e+001  2.659702e+001  1.608003e+002 -8.347963e+000  7.293005e+001
5.3600625000e+009 -1.001434e+000 -9.696385e+000 -3.429715e+001 -5.160974e+001  2.657172e+001  1.605904e+002 -8.304212e+000  7.247261e+001
5.3601875000e+009 -9.682630e-001 -9.390903e+000 -3.384344e+001 -4.971630e+001  2.657274e+001  1.604766e+002 -8.280512e+000  7.390560e+001
5.3603125000e+009 -9.774005e-001 -9.516044e+000 -3.403462e+001 -5.073650e+001  2.657903e+001  1.602595e+002 -8.248217e+000  7.374100e+001
5.3604375000e+009 -9.193969e-001 -9.699509e+000 -3.375390e+001 -4.880794e+001  2.654824e+001  1.597019e+002 -8.400645e+000  7.380953e+001
5.3605625000e+009 -9.161338e-001 -9.587458e+000 -3.391546e+001 -4.586606e+001  2.655672e+001  1.598648e+002 -8.327692e+000  7.448760e+001
5.3606875000e+009 -9.281694e-001 -9.896095e+000 -3.409922e+001 -5.099292e+001  2.651690e+001  1.599052e+002 -8.389896e+000  7.452843e+001
5.3608125000e+009 -8.608086e-001 -9.842110e+000 -3.427803e+001 -4.951062e+001  2.656194e+001  1.593755e+002 -8.218498e+000  7.423444e+001
5.3609375000e+009 -8.215131e-001 -1.004781e+001 -3.362445e+001 -4.589685e+001  2.654627e+001  1.591320e+002 -8.269056e+000  7.453266e+001
5.3610625000e+009 -8.292317e-001 -1.012830e+001 -3.336067e+001 -5.077552e+001  2.652539e+001  1.588475e+002 -8.250779e+000  7.427357e+001
5.3611875000e+009 -7.433385e-001 -1.007277e+001 -3.371679e+001 -4.839995e+001  2.654058e+001  1.586520e+002 -8.320318e+000  7.445701e+001
5.3613125000e+009 -7.755381e-001 -1.001644e+001 -3.398619e+001 -4.975517e+001  2.641475e+001  1.584190e+002 -8.632291e+000  7.536702e+001
5.3614375000e+009 -7.271242e-001 -1.015776e+001 -3.399064e+001 -5.099759e+001  2.649073e+001  1.584867e+002 -8.371013e+000  7.544344e+001
5.3615625000e+009 -6.346239e-001 -1.020203e+001 -3.350648e+001 -5.039520e+001  2.648380e+001  1.581467e+002 -8.336355e+000  7.560239e+001
5.3616875000e+009 -6.642653e-001 -1.035147e+001 -3.396832e+001 -4.959899e+001  2.650219e+001  1.577310e+002 -8.408089e+000  7.489122e+001
5.3618125000e+009 -6.650613e-001 -1.026990e+001 -3.411076e+001 -5.357199e+001  2.640606e+001  1.577161e+002 -8.532724e+000  7.526119e+001
5.3619375000e+009 -5.872709e-001 -1.044031e+001 -3.382189e+001 -5.113459e+001  2.647963e+001  1.573177e+002 -8.370969e+000  7.525916e+001
5.3620625000e+009 -6.236775e-001 -1.058336e+001 -3.431027e+001 -4.986054e+001  2.638176e+001  1.571553e+002 -8.595563e+000  7.520758e+001
5.3621875000e+009 -5.712186e-001 -1.069821e+001 -3.361092e+001 -4.912868e+001  2.640207e+001  1.572136e+002 -8.405602e+000  7.633435e+001
5.3623125000e+009 -5.522813e-001 -1.058954e+001 -3.365394e+001 -5.212988e+001  2.647076e+001  1.566478e+002 -8.307287e+000  7.486179e+001
5.3624375000e+009 -5.224848e-001 -1.076039e+001 -3.327031e+001 -4.904097e+001  2.643803e+001  1.568683e+002 -8.292867e+000  7.661330e+001
5.3625625000e+009 -5.194507e-001 -1.064137e+001 -3.395265e+001 -4.940359e+001  2.637366e+001  1.566327e+002 -8.516039e+000  7.661092e+001
5.3626875000e+009 -4.667109e-001 -1.069070e+001 -3.346857e+001 -4.887133e+001  2.641200e+001  1.562070e+002 -8.334101e+000  7.632607e+001
5.3628125000e+009 -4.404293e-001 -1.083512e+001 -3.350517e+001 -5.015922e+001  2.643781e+001  1.559762e+002 -8.318468e+000  7.626782e+001
5.3629375000e+009 -4.406230e-001 -1.083663e+001 -3.361104e+001 -5.136277e+001  2.629275e+001  1.561427e+002 -8.543378e+000  7.686018e+001
5.3630625000e+009 -3.856096e-001 -1.079244e+001 -3.313223e+001 -5.262918e+001  2.635369e+001  1.555934e+002 -8.407680e+000  7.713149e+001
5.3631875000e+009 -3.619787e-001 -1.084451e+001 -3.366819e+001 -5.036659e+001  2.632647e+001  1.554630e+002 -8.558437e+000  7.718958e+001
5.3633125000e+009 -3.828511e-001 -1.075788e+001 -3.339749e+001 -5.116082e+001  2.631295e+001  1.555912e+002 -8.473408e+000  7.742987e+001
5.3634375000e+009 -3.198988e-001 -1.073229e+001 -3.322381e+001 -5.496730e+001  2.642954e+001  1.551683e+002 -8.294865e+000  7.707436e+001
5.3635625000e+009 -3.070076e-001 -1.088089e+001 -3.319708e+001 -5.121726e+001  2.644743e+001  1.551184e+002 -8.357475e+000  7.766337e+001
5.3636875000e+009 -3.020859e-001 -1.107624e+001 -3.371194e+001 -5.287747e+001  2.624778e+001  1.546960e+002 -8.709254e+000  7.788732e+001
5.3638125000e+009 -2.651969e-001 -1.105630e+001 -3.352113e+001 -5.669106e+001  2.631998e+001  1.546221e+002 -8.569391e+000  7.779762e+001
5.3639375000e+009 -2.303006e-001 -1.079303e+001 -3.386657e+001 -5.445625e+001  2.620554e+001  1.539868e+002 -8.851564e+000  7.820872e+001
5.3640625000e+009 -2.071853e-001 -1.108303e+001 -3.347589e+001 -5.295102e+001  2.624074e+001  1.540509e+002 -8.707484e+000  7.800387e+001
5.3641875000e+009 -2.049896e-001 -1.103594e+001 -3.323196e+001 -5.400546e+001  2.637163e+001  1.543418e+002 -8.450165e+000  7.836631e+001
5.3643125000e+009 -2.127693e-001 -1.092506e+001 -3.367335e+001 -5.860262e+001  2.635039e+001  1.536996e+002 -8.662654e+000  7.806087e+001
5.3644375000e+009 -1.753123e-001 -1.098075e+001 -3.335629e+001 -5.321859e+001  2.620785e+001  1.537062e+002 -8.733359e+000  7.897607e+001
5.3645625000e+009 -1.196718e-001 -1.091649e+001 -3.359029e+001 -5.030922e+001  2.630069e+001  1.538739e+002 -8.636176e+000  8.001709e+001
5.3646875000e+009 -1.418167e-001 -1.109791e+001 -3.368752e+001 -5.667982e+001  2.627152e+001  1.534681e+002 -8.695313e+000  7.918600e+001
5.3648125000e+009 -7.507084e-002 -1.121845e+001 -3.329527e+001 -5.420469e+001  2.629713e+001  1.531419e+002 -8.690336e+000  7.967716e+001
5.3649375000e+009 -9.183582e-002 -1.089326e+001 -3.401331e+001 -5.546022e+001  2.636224e+001  1.532681e+002 -8.723964e+000  7.970094e+001
5.3650625000e+009 -5.837652e-002 -1.126446e+001 -3.345702e+001 -5.751612e+001  2.620915e+001  1.528336e+002 -8.766545e+000  7.984674e+001
5.3651875000e+009  8.216931e-003 -1.115741e+001 -3.323056e+001 -5.526595e+001  2.617488e+001  1.523781e+002 -8.817732e+000  7.982578e+001
5.3653125000e+009 -2.188798e-002 -1.119537e+001 -3.358917e+001 -5.266279e+001  2.629570e+001  1.522644e+002 -8.791153e+000  8.072491e+001
5.3654375000e+009  5.221050e-003 -1.124133e+001 -3.351589e+001 -5.677763e+001  2.614382e+001  1.520789e+002 -8.886830e+000  8.083954e+001
5.3655625000e+009  5.440492e-002 -1.132474e+001 -3.306871e+001 -5.356788e+001  2.615194e+001  1.519226e+002 -8.821900e+000  8.103003e+001
5.3656875000e+009  4.516568e-002 -1.108007e+001 -3.336636e+001 -5.200617e+001  2.622836e+001  1.523014e+002 -8.698235e+000  8.212599e+001
5.3658125000e+009  5.187798e-002 -1.119841e+001 -3.397943e+001 -5.580412e+001  2.616466e+001  1.518271e+002 -8.946666e+000  8.165586e+001
5.3659375000e+009  7.796086e-002 -1.137834e+001 -3.389141e+001 -5.880449e+001  2.612351e+001  1.505472e+002 -9.097874e+000  8.088401e+001
5.3660625000e+009  1.055564e-001 -1.124459e+001 -3.360476e+001 -5.383809e+001  2.616446e+001  1.516221e+002 -8.853042e+000  8.270154e+001
5.3661875000e+009  1.047977e-001 -1.137583e+001 -3.358536e+001 -5.599091e+001  2.614708e+001  1.507074e+002 -8.932223e+000  8.176241e+001
5.3663125000e+009  1.690653e-001 -1.140388e+001 -3.333736e+001 -5.537851e+001  2.619401e+001  1.506616e+002 -8.885433e+000  8.220315e+001
5.3664375000e+009  2.012175e-001 -1.143880e+001 -3.284606e+001 -5.767312e+001  2.619751e+001  1.507539e+002 -8.851045e+000  8.186962e+001
5.3665625000e+009  1.561812e-001 -1.194654e+001 -3.353197e+001 -5.701407e+001  2.618147e+001  1.510659e+002 -8.909317e+000  8.306599e+001
5.3666875000e+009  2.101444e-001 -1.160673e+001 -3.289693e+001 -5.819675e+001  2.614586e+001  1.503628e+002 -8.806095e+000  8.219804e+001
5.3668125000e+009  2.340878e-001 -1.146362e+001 -3.347816e+001 -5.932340e+001  2.616001e+001  1.507742e+002 -8.893141e+000  8.276637e+001
5.3669375000e+009  2.968813e-001 -1.180041e+001 -3.286762e+001 -5.942679e+001  2.611507e+001  1.503555e+002 -8.833410e+000  8.291351e+001
5.3670625000e+009  3.151615e-001 -1.143446e+001 -3.287384e+001 -5.462627e+001  2.620795e+001  1.503206e+002 -8.819512e+000  8.376180e+001
5.3671875000e+009  3.005545e-001 -1.148776e+001 -3.352649e+001 -5.191018e+001  2.616140e+001  1.505366e+002 -8.895737e+000  8.485756e+001
5.3673125000e+009  2.886182e-001 -1.187585e+001 -3.339015e+001 -5.911288e+001  2.610104e+001  1.493552e+002 -9.012607e+000  8.359584e+001
5.3674375000e+009  3.708959e-001 -1.155819e+001 -3.322496e+001 -5.652589e+001  2.609873e+001  1.495684e+002 -8.990598e+000  8.439425e+001
5.3675625000e+009  3.579114e-001 -1.149043e+001 -3.344156e+001 -5.859608e+001  2.609300e+001  1.495656e+002 -8.984223e+000  8.464346e+001
5.3676875000e+009  4.158982e-001 -1.167098e+001 -3.326641e+001 -5.742441e+001  2.617623e+001  1.498021e+002 -8.914110e+000  8.504465e+001
5.3678125000e+009  3.443494e-001 -1.188128e+001 -3.325799e+001 -5.810352e+001  2.610571e+001  1.482905e+002 -9.038387e+000  8.427320e+001
5.3679375000e+009  3.231266e-001 -1.243130e+001 -3.318461e+001 -6.226631e+001  2.609288e+001  1.495419e+002 -8.979831e+000  8.478923e+001
5.3680625000e+009  3.474317e-001 -1.225064e+001 -3.352502e+001 -6.365057e+001  2.605594e+001  1.489385e+002 -9.042966e+000  8.476408e+001
5.3681875000e+009  5.512219e-001 -1.155958e+001 -3.312372e+001 -5.377839e+001  2.613389e+001  1.481841e+002 -9.003706e+000  8.591055e+001
5.3683125000e+009  4.274308e-001 -1.211302e+001 -3.352732e+001 -5.585008e+001  2.602618e+001  1.482174e+002 -9.094075e+000  8.651104e+001
5.3684375000e+009  4.527032e-001 -1.269106e+001 -3.341150e+001 -6.192699e+001  2.613693e+001  1.486402e+002 -8.985096e+000  8.582098e+001
5.3685625000e+009  5.585657e-001 -1.238098e+001 -3.273799e+001 -6.179864e+001  2.600887e+001  1.474828e+002 -9.007246e+000  8.521341e+001
5.3686875000e+009  5.202453e-001 -1.220607e+001 -3.259702e+001 -5.825848e+001  2.604347e+001  1.475465e+002 -8.944606e+000  8.652630e+001
5.3688125000e+009  4.542449e-001 -1.270301e+001 -3.308022e+001 -6.355112e+001  2.603599e+001  1.476273e+002 -9.083029e+000  8.585919e+001
5.3689375000e+009  5.605382e-001 -1.187493e+001 -3.282281e+001 -5.823594e+001  2.597557e+001  1.468194e+002 -9.041627e+000  8.681151e+001
5.3690625000e+009  4.855046e-001 -1.313272e+001 -3.313122e+001 -5.999774e+001  2.598238e+001  1.472723e+002 -9.051803e+000  8.709328e+001
5.3691875000e+009  5.177765e-001 -1.291896e+001 -3.289173e+001 -6.204712e+001  2.600983e+001  1.475125e+002 -9.063806e+000  8.695650e+001
5.3693125000e+009  6.452703e-001 -1.217033e+001 -3.309098e+001 -6.076304e+001  2.603611e+001  1.472849e+002 -9.078652e+000  8.753979e+001
5.3694375000e+009  5.869090e-001 -1.254125e+001 -3.297156e+001 -5.834594e+001  2.597884e+001  1.468528e+002 -9.048775e+000  8.820260e+001
5.3695625000e+009  5.785798e-001 -1.320206e+001 -3.302650e+001 -6.247484e+001  2.598852e+001  1.456278e+002 -9.161764e+000  8.730962e+001
5.3696875000e+009  6.360344e-001 -1.258945e+001 -3.335147e+001 -6.109009e+001  2.598779e+001  1.459986e+002 -9.158587e+000  8.813910e+001
5.3698125000e+009  6.068065e-001 -1.257839e+001 -3.298986e+001 -6.310096e+001  2.592817e+001  1.457522e+002 -9.151451e+000  8.801594e+001
5.3699375000e+009  6.259720e-001 -1.310128e+001 -3.335033e+001 -5.907316e+001  2.592556e+001  1.469287e+002 -9.076305e+000  8.956427e+001
5.3700625000e+009  6.852866e-001 -1.259867e+001 -3.266710e+001 -6.143939e+001  2.594723e+001  1.454185e+002 -9.074042e+000  8.829948e+001
5.3701875000e+009  5.933949e-001 -1.301669e+001 -3.256802e+001 -6.269854e+001  2.596791e+001  1.460219e+002 -9.100262e+000  8.884537e+001
5.3703125000e+009  6.974305e-001 -1.298959e+001 -3.280342e+001 -6.137234e+001  2.588883e+001  1.462722e+002 -9.085786e+000  8.989948e+001
5.3704375000e+009  7.317049e-001 -1.273110e+001 -3.321829e+001 -6.037697e+001  2.600554e+001  1.451494e+002 -9.132409e+000  8.978932e+001
5.3705625000e+009  7.733663e-001 -1.275105e+001 -3.290497e+001 -5.685167e+001  2.601169e+001  1.450229e+002 -8.987254e+000  9.028300e+001
5.3706875000e+009  7.853540e-001 -1.347660e+001 -3.271311e+001 -6.242922e+001  2.587039e+001  1.455390e+002 -9.122565e+000  9.031866e+001
5.3708125000e+009  8.548380e-001 -1.310377e+001 -3.308979e+001 -6.445952e+001  2.593098e+001  1.445998e+002 -9.108068e+000  8.995005e+001
5.3709375000e+009  7.598517e-001 -1.268422e+001 -3.287421e+001 -5.924168e+001  2.596151e+001  1.446177e+002 -9.018373e+000  9.062428e+001
5.3710625000e+009  7.499602e-001 -1.350182e+001 -3.219168e+001 -6.448495e+001  2.583916e+001  1.453476e+002 -9.040241e+000  9.002964e+001
5.3711875000e+009  7.951885e-001 -1.392078e+001 -3.288395e+001 -6.207661e+001  2.592851e+001  1.443160e+002 -9.072656e+000  9.077787e+001
5.3713125000e+009  7.786001e-001 -1.356240e+001 -3.344519e+001 -6.557888e+001  2.582744e+001  1.447374e+002 -9.238307e+000  9.106353e+001
5.3714375000e+009  8.848128e-001 -1.382827e+001 -3.236938e+001 -6.511736e+001  2.585024e+001  1.446710e+002 -9.065714e+000  9.095502e+001
5.3715625000e+009  7.910209e-001 -1.376104e+001 -3.293080e+001 -6.457955e+001  2.583503e+001  1.438369e+002 -9.172375e+000  9.128955e+001
5.3716875000e+009  9.594827e-001 -1.359879e+001 -3.295057e+001 -6.208790e+001  2.590996e+001  1.437810e+002 -9.123805e+000  9.211198e+001
5.3718125000e+009  8.864602e-001 -1.362051e+001 -3.321371e+001 -6.221167e+001  2.588654e+001  1.439737e+002 -9.162630e+000  9.271091e+001
5.3719375000e+009  8.457776e-001 -1.265325e+001 -3.322958e+001 -6.111656e+001  2.587462e+001  1.433867e+002 -9.127791e+000  9.311741e+001
5.3720625000e+009  8.974643e-001 -1.422667e+001 -3.260117e+001 -6.492776e+001  2.582693e+001  1.436354e+002 -9.106417e+000  9.225273e+001
5.3721875000e+009  9.721909e-001 -1.408601e+001 -3.251283e+001 -6.335794e+001  2.574582e+001  1.434727e+002 -9.095969e+000  9.247699e+001
5.3723125000e+009  9.296554e-001 -1.339385e+001 -3.252576e+001 -6.246243e+001  2.589057e+001  1.427584e+002 -9.077886e+000  9.345676e+001
5.3724375000e+009  9.450801e-001 -1.474064e+001 -3.281745e+001 -6.270727e+001  2.578314e+001  1.430135e+002 -9.113760e+000  9.345522e+001
5.3725625000e+009  8.532029e-001 -1.408468e+001 -3.278690e+001 -6.244533e+001  2.574019e+001  1.427093e+002 -9.133821e+000  9.393503e+001
5.3726875000e+009  9.240633e-001 -1.390148e+001 -3.266389e+001 -6.510764e+001  2.580157e+001  1.425408e+002 -9.140499e+000  9.348981e+001
5.3728125000e+009  1.045208e+000 -1.367003e+001 -3.294511e+001 -6.311954e+001  2.577083e+001  1.425838e+002 -9.180488e+000  9.447843e+001
5.3729375000e+009  8.508180e-001 -1.419583e+001 -3.279751e+001 -6.832928e+001  2.576006e+001  1.427565e+002 -9.175034e+000  9.379550e+001
5.3730625000e+009  1.048158e+000 -1.441346e+001 -3.312392e+001 -6.852334e+001  2.576542e+001  1.420676e+002 -9.238149e+000  9.426294e+001
5.3731875000e+009  1.078224e+000 -1.459172e+001 -3.267932e+001 -6.182538e+001  2.567101e+001  1.421264e+002 -9.128094e+000  9.513187e+001
5.3733125000e+009  8.912196e-001 -1.393574e+001 -3.269838e+001 -6.477171e+001  2.575206e+001  1.418860e+002 -9.063316e+000  9.527614e+001
5.3734375000e+009  9.709293e-001 -1.390921e+001 -3.284612e+001 -6.638643e+001  2.576396e+001  1.418101e+002 -9.197567e+000  9.533244e+001
5.3735625000e+009  1.033230e+000 -1.418913e+001 -3.301866e+001 -6.901879e+001  2.568464e+001  1.415555e+002 -9.233537e+000  9.496985e+001
5.3736875000e+009  9.454682e-001 -1.396112e+001 -3.296438e+001 -6.380329e+001  2.563501e+001  1.417929e+002 -9.232041e+000  9.605106e+001
5.3738125000e+009  9.723740e-001 -1.436745e+001 -3.331837e+001 -6.917780e+001  2.570870e+001  1.413105e+002 -9.240877e+000  9.644976e+001
5.3739375000e+009  1.050664e+000 -1.454018e+001 -3.269795e+001 -6.644089e+001  2.557920e+001  1.410791e+002 -9.241103e+000  9.574136e+001
5.3740625000e+009  1.099333e+000 -1.515149e+001 -3.296792e+001 -6.606471e+001  2.569642e+001  1.408312e+002 -9.214611e+000  9.691246e+001
5.3741875000e+009  1.149187e+000 -1.479861e+001 -3.298553e+001 -6.807140e+001  2.564989e+001  1.408026e+002 -9.231708e+000  9.689800e+001
5.3743125000e+009  1.138059e+000 -1.546609e+001 -3.289150e+001 -7.002018e+001  2.561838e+001  1.405927e+002 -9.233327e+000  9.688291e+001
5.3744375000e+009  1.041140e+000 -1.479099e+001 -3.284453e+001 -6.841252e+001  2.551133e+001  1.406888e+002 -9.288565e+000  9.665621e+001
5.3745625000e+009  1.068446e+000 -1.418473e+001 -3.317144e+001 -6.564156e+001  2.559803e+001  1.407275e+002 -9.232140e+000  9.784274e+001
5.3746875000e+009  1.147867e+000 -1.491371e+001 -3.275795e+001 -6.735313e+001  2.559321e+001  1.401020e+002 -9.245527e+000  9.786319e+001
5.3748125000e+009  1.152321e+000 -1.511547e+001 -3.282354e+001 -6.794450e+001  2.553417e+001  1.401085e+002 -9.223419e+000  9.791739e+001
5.3749375000e+009  1.119880e+000 -1.412254e+001 -3.302292e+001 -6.101724e+001  2.552666e+001  1.397851e+002 -9.164913e+000  9.935162e+001
5.3750625000e+009  1.228634e+000 -1.430645e+001 -3.295495e+001 -6.811463e+001  2.559686e+001  1.399204e+002 -9.196187e+000  9.841035e+001
5.3751875000e+009  1.218896e+000 -1.585060e+001 -3.247668e+001 -7.120730e+001  2.544442e+001  1.395678e+002 -9.344584e+000  9.772251e+001
5.3753125000e+009  1.103182e+000 -1.515869e+001 -3.281959e+001 -6.930545e+001  2.550673e+001  1.396510e+002 -9.312304e+000  9.896561e+001
5.3754375000e+009  1.139988e+000 -1.548425e+001 -3.298701e+001 -7.342194e+001  2.548281e+001  1.392465e+002 -9.448183e+000  9.875181e+001
5.3755625000e+009  1.280222e+000 -1.623568e+001 -3.247850e+001 -6.821515e+001  2.546202e+001  1.388897e+002 -9.294549e+000  9.950999e+001
5.3756875000e+009  1.264433e+000 -1.675065e+001 -3.260078e+001 -6.962723e+001  2.546915e+001  1.388496e+002 -9.260406e+000  9.912906e+001
5.3758125000e+009  1.228855e+000 -1.640098e+001 -3.254071e+001 -7.118607e+001  2.542546e+001  1.388129e+002 -9.384014e+000  9.982845e+001
5.3759375000e+009  1.114372e+000 -1.635744e+001 -3.302230e+001 -6.944711e+001  2.539918e+001  1.385030e+002 -9.384951e+000  1.005430e+002
5.3760625000e+009  9.996167e-001 -1.586270e+001 -3.289962e+001 -7.224022e+001  2.541405e+001  1.387479e+002 -9.459235e+000  1.004273e+002
5.3761875000e+009  1.280194e+000 -1.610683e+001 -3.248019e+001 -7.025101e+001  2.536098e+001  1.380589e+002 -9.516321e+000  1.004626e+002
5.3763125000e+009  1.257545e+000 -1.733450e+001 -3.272170e+001 -7.034917e+001  2.533881e+001  1.380176e+002 -9.458852e+000  1.009086e+002
5.3764375000e+009  1.067940e+000 -1.635090e+001 -3.286747e+001 -7.092664e+001  2.533592e+001  1.380298e+002 -9.477148e+000  1.014657e+002
5.3765625000e+009  1.030605e+000 -1.735332e+001 -3.295502e+001 -7.102566e+001  2.529214e+001  1.377760e+002 -9.540361e+000  1.021414e+002
5.3766875000e+009  1.344247e+000 -1.717124e+001 -3.258321e+001 -6.798628e+001  2.528951e+001  1.373277e+002 -9.492136e+000  1.021235e+002
5.3768125000e+009  1.213636e+000 -1.659855e+001 -3.324520e+001 -7.123508e+001  2.528059e+001  1.375202e+002 -9.655264e+000  1.035161e+002
5.3769375000e+009  1.127394e+000 -1.701723e+001 -3.295134e+001 -7.298020e+001  2.526371e+001  1.375311e+002 -9.674491e+000  1.027717e+002
5.3770625000e+009  1.282229e+000 -1.808670e+001 -3.243621e+001 -7.524741e+001  2.523681e+001  1.368018e+002 -9.793852e+000  1.020042e+002
5.3771875000e+009  1.056877e+000 -1.730610e+001 -3.286023e+001 -6.839882e+001  2.522993e+001  1.372762e+002 -9.567685e+000  1.035667e+002
5.3773125000e+009  1.165805e+000 -1.810557e+001 -3.303734e+001 -7.426776e+001  2.517596e+001  1.367884e+002 -9.837602e+000  1.037136e+002
5.3774375000e+009  1.264187e+000 -1.777639e+001 -3.258564e+001 -7.597816e+001  2.518577e+001  1.364758e+002 -9.910989e+000  1.033844e+002
5.3775625000e+009  1.390556e+000 -1.872950e+001 -3.258523e+001 -7.181644e+001  2.513856e+001  1.361173e+002 -9.734911e+000  1.042210e+002
5.3776875000e+009  1.134421e+000 -1.811735e+001 -3.265485e+001 -7.136599e+001  2.512971e+001  1.363203e+002 -9.713062e+000  1.039582e+002
5.3778125000e+009  1.302480e+000 -1.809574e+001 -3.253371e+001 -7.549707e+001  2.512280e+001  1.359289e+002 -9.894939e+000  1.043946e+002
5.3779375000e+009  1.268804e+000 -1.902448e+001 -3.260263e+001 -7.492549e+001  2.505821e+001  1.361459e+002 -9.894172e+000  1.054810e+002
5.3780625000e+009  1.307858e+000 -1.921211e+001 -3.297146e+001 -7.446877e+001  2.507984e+001  1.358536e+002 -9.865710e+000  1.054916e+002
5.3781875000e+009  1.358755e+000 -1.871826e+001 -3.288786e+001 -7.695973e+001  2.502826e+001  1.355324e+002 -9.979727e+000  1.064526e+002
5.3783125000e+009  1.345068e+000 -2.006699e+001 -3.179646e+001 -7.485801e+001  2.500189e+001  1.352296e+002 -9.926628e+000  1.049621e+002
5.3784375000e+009  1.251232e+000 -1.933736e+001 -3.275515e+001 -7.296460e+001  2.504800e+001  1.354530e+002 -9.848863e+000  1.061179e+002
5.3785625000e+009  1.346371e+000 -2.005676e+001 -3.204138e+001 -7.376672e+001  2.502593e+001  1.351375e+002 -9.903739e+000  1.042393e+002
5.3786875000e+009  1.241601e+000 -2.029190e+001 -3.191350e+001 -8.035452e+001  2.499623e+001  1.352666e+002 -1.006685e+001  1.047529e+002
5.3788125000e+009  1.370374e+000 -2.043178e+001 -3.260874e+001 -7.245802e+001  2.497004e+001  1.345420e+002 -1.000278e+001  1.071992e+002
5.3789375000e+009  1.327497e+000 -2.033523e+001 -3.210763e+001 -7.512502e+001  2.499524e+001  1.345712e+002 -1.006818e+001  1.057023e+002
5.3790625000e+009  1.200337e+000 -2.043700e+001 -3.228590e+001 -7.512206e+001  2.484858e+001  1.344246e+002 -1.012783e+001  1.077916e+002
5.3791875000e+009  1.225073e+000 -2.064788e+001 -3.247300e+001 -8.036777e+001  2.487955e+001  1.346138e+002 -1.024635e+001  1.074323e+002
5.3793125000e+009  1.359650e+000 -2.133621e+001 -3.250605e+001 -8.132891e+001  2.486489e+001  1.340549e+002 -1.027422e+001  1.079060e+002
5.3794375000e+009  1.321448e+000 -2.082218e+001 -3.254156e+001 -7.671793e+001  2.480788e+001  1.344869e+002 -1.012538e+001  1.085882e+002
5.3795625000e+009  1.242329e+000 -2.142093e+001 -3.210546e+001 -7.621865e+001  2.474911e+001  1.337731e+002 -1.022669e+001  1.090281e+002
5.3796875000e+009  1.447521e+000 -2.175293e+001 -3.198220e+001 -7.811473e+001  2.487486e+001  1.333937e+002 -1.025562e+001  1.074709e+002
5.3798125000e+009  1.284629e+000 -2.141120e+001 -3.245377e+001 -8.312486e+001  2.467762e+001  1.335060e+002 -1.046538e+001  1.103779e+002
5.3799375000e+009  1.390171e+000 -2.134891e+001 -3.289245e+001 -8.048122e+001  2.479424e+001  1.337227e+002 -1.030951e+001  1.098536e+002
5.3800625000e+009  1.423945e+000 -2.145484e+001 -3.304772e+001 -7.793228e+001  2.478242e+001  1.333222e+002 -1.024273e+001  1.102951e+002
5.3801875000e+009  1.302300e+000 -2.264408e+001 -3.196632e+001 -8.070530e+001  2.472544e+001  1.333115e+002 -1.041834e+001  1.089645e+002
5.3803125000e+009  1.360512e+000 -2.229633e+001 -3.230521e+001 -8.138715e+001  2.466470e+001  1.330309e+002 -1.043160e+001  1.103509e+002
5.3804375000e+009  1.460125e+000 -2.180868e+001 -3.237429e+001 -7.900983e+001  2.472560e+001  1.328945e+002 -1.042296e+001  1.104851e+002
5.3805625000e+009  1.425029e+000 -2.269780e+001 -3.241040e+001 -8.180527e+001  2.468222e+001  1.326860e+002 -1.053903e+001  1.105031e+002
5.3806875000e+009  1.258356e+000 -2.301182e+001 -3.232428e+001 -7.999284e+001  2.461303e+001  1.330643e+002 -1.037589e+001  1.110343e+002
5.3808125000e+009  1.486073e+000 -2.221761e+001 -3.235303e+001 -7.806747e+001  2.471802e+001  1.326449e+002 -1.032968e+001  1.106348e+002
5.3809375000e+009  1.369436e+000 -2.346614e+001 -3.224472e+001 -8.348974e+001  2.465420e+001  1.327268e+002 -1.054217e+001  1.106007e+002
5.3810625000e+009  1.378555e+000 -2.332845e+001 -3.235167e+001 -8.056880e+001  2.454465e+001  1.319887e+002 -1.059073e+001  1.120394e+002
5.3811875000e+009  1.468832e+000 -2.312584e+001 -3.215525e+001 -8.154618e+001  2.467177e+001  1.324669e+002 -1.049202e+001  1.109182e+002
5.3813125000e+009  1.447911e+000 -2.357176e+001 -3.200751e+001 -8.014021e+001  2.454058e+001  1.318824e+002 -1.058060e+001  1.118923e+002
5.3814375000e+009  1.364852e+000 -2.419336e+001 -3.210645e+001 -7.966561e+001  2.451973e+001  1.321286e+002 -1.051183e+001  1.117889e+002
5.3815625000e+009  1.465106e+000 -2.406137e+001 -3.232613e+001 -8.258762e+001  2.455429e+001  1.317673e+002 -1.067237e+001  1.122813e+002
5.3816875000e+009  1.401202e+000 -2.387382e+001 -3.281799e+001 -7.902885e+001  2.443281e+001  1.315835e+002 -1.056039e+001  1.140741e+002
5.3818125000e+009  1.390663e+000 -2.451773e+001 -3.214796e+001 -8.564030e+001  2.441298e+001  1.309146e+002 -1.096777e+001  1.138890e+002
5.3819375000e+009  1.396706e+000 -2.437510e+001 -3.262799e+001 -8.608351e+001  2.441402e+001  1.309971e+002 -1.085966e+001  1.144548e+002
5.3820625000e+009  1.420938e+000 -2.438297e+001 -3.183090e+001 -8.482050e+001  2.435856e+001  1.307980e+002 -1.095206e+001  1.141117e+002
5.3821875000e+009  1.438518e+000 -2.475443e+001 -3.224517e+001 -8.693350e+001  2.434004e+001  1.306827e+002 -1.096002e+001  1.152665e+002
5.3823125000e+009  1.464516e+000 -2.502536e+001 -3.211958e+001 -8.350530e+001  2.435353e+001  1.305460e+002 -1.091094e+001  1.146372e+002
5.3824375000e+009  1.438311e+000 -2.549527e+001 -3.227740e+001 -8.620708e+001  2.426345e+001  1.307837e+002 -1.089435e+001  1.155482e+002
5.3825625000e+009  1.436373e+000 -2.524219e+001 -3.241463e+001 -8.670029e+001  2.425262e+001  1.304739e+002 -1.099946e+001  1.160314e+002
5.3826875000e+009  1.480497e+000 -2.532359e+001 -3.146834e+001 -8.479127e+001  2.431034e+001  1.304741e+002 -1.096253e+001  1.140308e+002
5.3828125000e+009  1.451788e+000 -2.521200e+001 -3.251711e+001 -8.540311e+001  2.424442e+001  1.301564e+002 -1.097632e+001  1.164421e+002
5.3829375000e+009  1.475509e+000 -2.572536e+001 -3.182425e+001 -9.113853e+001  2.422529e+001  1.300963e+002 -1.123479e+001  1.163438e+002
5.3830625000e+009  1.509130e+000 -2.569632e+001 -3.219224e+001 -8.325794e+001  2.413661e+001  1.298584e+002 -1.092435e+001  1.167938e+002
5.3831875000e+009  1.494982e+000 -2.589043e+001 -3.229888e+001 -8.638673e+001  2.414340e+001  1.293607e+002 -1.111914e+001  1.176533e+002
5.3833125000e+009  1.520715e+000 -2.636265e+001 -3.165565e+001 -8.644231e+001  2.411485e+001  1.290337e+002 -1.123026e+001  1.170277e+002
5.3834375000e+009  1.530888e+000 -2.605752e+001 -3.257726e+001 -8.473941e+001  2.413502e+001  1.299582e+002 -1.093825e+001  1.177438e+002
5.3835625000e+009  1.564550e+000 -2.627881e+001 -3.166529e+001 -8.004928e+001  2.424787e+001  1.297440e+002 -1.096055e+001  1.152208e+002
5.3836875000e+009  1.522736e+000 -2.623916e+001 -3.244229e+001 -8.574360e+001  2.409041e+001  1.293181e+002 -1.107160e+001  1.181129e+002
5.3838125000e+009  1.544111e+000 -2.647919e+001 -3.182234e+001 -8.517821e+001  2.403259e+001  1.299373e+002 -1.099648e+001  1.175603e+002
5.3839375000e+009  1.627030e+000 -2.641993e+001 -3.212897e+001 -8.408732e+001  2.400613e+001  1.287618e+002 -1.109488e+001  1.185398e+002
5.3840625000e+009  1.613395e+000 -2.708929e+001 -3.173851e+001 -8.539301e+001  2.405319e+001  1.285547e+002 -1.125157e+001  1.177955e+002
5.3841875000e+009  1.600729e+000 -2.691159e+001 -3.213510e+001 -9.085361e+001  2.399107e+001  1.296907e+002 -1.113896e+001  1.195443e+002
5.3843125000e+009  1.588224e+000 -2.684280e+001 -3.146886e+001 -8.507071e+001  2.393165e+001  1.284761e+002 -1.125084e+001  1.186496e+002
5.3844375000e+009  1.620838e+000 -2.702850e+001 -3.196238e+001 -8.720271e+001  2.395190e+001  1.280578e+002 -1.134596e+001  1.192905e+002
5.3845625000e+009  1.629006e+000 -2.732571e+001 -3.191872e+001 -8.778158e+001  2.393998e+001  1.278267e+002 -1.143340e+001  1.199699e+002
5.3846875000e+009  1.628842e+000 -2.724545e+001 -3.177799e+001 -8.839855e+001  2.390363e+001  1.281760e+002 -1.138286e+001  1.198421e+002
5.3848125000e+009  1.616635e+000 -2.708284e+001 -3.235292e+001 -9.185960e+001  2.391832e+001  1.277178e+002 -1.151363e+001  1.217644e+002
5.3849375000e+009  1.546196e+000 -2.710164e+001 -3.231190e+001 -9.105157e+001  2.387983e+001  1.288985e+002 -1.130475e+001  1.211241e+002
5.3850625000e+009  1.639098e+000 -2.745700e+001 -3.234588e+001 -8.751802e+001  2.391380e+001  1.270545e+002 -1.144345e+001  1.206834e+002
5.3851875000e+009  1.694322e+000 -2.784768e+001 -3.201741e+001 -9.005181e+001  2.372782e+001  1.276425e+002 -1.139312e+001  1.221755e+002
5.3853125000e+009  1.644313e+000 -2.817634e+001 -3.134949e+001 -8.949433e+001  2.387922e+001  1.277706e+002 -1.160671e+001  1.199866e+002
5.3854375000e+009  1.732929e+000 -2.793967e+001 -3.168051e+001 -8.900789e+001  2.378721e+001  1.267938e+002 -1.163400e+001  1.216292e+002
5.3855625000e+009  1.706625e+000 -2.760278e+001 -3.191320e+001 -9.405562e+001  2.388506e+001  1.272036e+002 -1.171859e+001  1.218221e+002
5.3856875000e+009  1.763614e+000 -2.746661e+001 -3.186852e+001 -8.720258e+001  2.378884e+001  1.272112e+002 -1.143441e+001  1.215900e+002
5.3858125000e+009  1.760662e+000 -2.814651e+001 -3.129676e+001 -8.586079e+001  2.370137e+001  1.267710e+002 -1.152610e+001  1.216052e+002
5.3859375000e+009  1.768694e+000 -2.795561e+001 -3.201871e+001 -9.029713e+001  2.364213e+001  1.270275e+002 -1.145764e+001  1.233219e+002
5.3860625000e+009  1.737008e+000 -2.844624e+001 -3.129809e+001 -9.001684e+001  2.363080e+001  1.273276e+002 -1.154148e+001  1.223473e+002
5.3861875000e+009  1.724881e+000 -2.840270e+001 -3.178753e+001 -9.397590e+001  2.361430e+001  1.265848e+002 -1.174444e+001  1.246254e+002
5.3863125000e+009  1.824566e+000 -2.841611e+001 -3.165899e+001 -8.990070e+001  2.365952e+001  1.262459e+002 -1.169401e+001  1.230677e+002
5.3864375000e+009  1.820158e+000 -2.844123e+001 -3.155360e+001 -9.078464e+001  2.357751e+001  1.263966e+002 -1.168833e+001  1.237691e+002
5.3865625000e+009  1.844588e+000 -2.863422e+001 -3.150082e+001 -9.134051e+001  2.361571e+001  1.255721e+002 -1.183123e+001  1.239680e+002
5.3866875000e+009  1.859995e+000 -2.865556e+001 -3.278835e+001 -9.005879e+001  2.353337e+001  1.254716e+002 -1.158269e+001  1.261653e+002
5.3868125000e+009  1.802642e+000 -2.855402e+001 -3.228835e+001 -9.087692e+001  2.350749e+001  1.264697e+002 -1.147465e+001  1.255430e+002
5.3869375000e+009  1.830176e+000 -2.904384e+001 -3.185014e+001 -9.220075e+001  2.347720e+001  1.264657e+002 -1.158162e+001  1.250388e+002
5.3870625000e+009  1.954474e+000 -2.867140e+001 -3.095888e+001 -9.232281e+001  2.355594e+001  1.247852e+002 -1.213735e+001  1.243404e+002
5.3871875000e+009  1.855539e+000 -2.920241e+001 -3.227653e+001 -9.224185e+001  2.352716e+001  1.247931e+002 -1.185990e+001  1.263463e+002
5.3873125000e+009  1.953439e+000 -2.876643e+001 -3.160166e+001 -9.215101e+001  2.352288e+001  1.253949e+002 -1.184636e+001  1.250842e+002
5.3874375000e+009  1.920800e+000 -2.863198e+001 -3.148182e+001 -9.478065e+001  2.341311e+001  1.253237e+002 -1.193002e+001  1.266671e+002
5.3875625000e+009  1.907109e+000 -2.898000e+001 -3.158034e+001 -9.472556e+001  2.342236e+001  1.257098e+002 -1.181385e+001  1.264029e+002
5.3876875000e+009  1.884786e+000 -2.984944e+001 -3.189432e+001 -9.307938e+001  2.343950e+001  1.250364e+002 -1.188850e+001  1.263342e+002
5.3878125000e+009  2.022812e+000 -2.991203e+001 -3.109464e+001 -9.404597e+001  2.339739e+001  1.239542e+002 -1.225738e+001  1.266910e+002
5.3879375000e+009  1.898859e+000 -3.007509e+001 -3.125328e+001 -9.482642e+001  2.331123e+001  1.247714e+002 -1.208815e+001  1.275624e+002
5.3880625000e+009  1.973481e+000 -3.002922e+001 -3.144378e+001 -9.409830e+001  2.341209e+001  1.248188e+002 -1.212487e+001  1.266596e+002
5.3881875000e+009  1.969152e+000 -3.058091e+001 -3.133061e+001 -9.381029e+001  2.328593e+001  1.247949e+002 -1.208305e+001  1.274183e+002
5.3883125000e+009  1.956427e+000 -3.132022e+001 -3.232700e+001 -9.399142e+001  2.320002e+001  1.240906e+002 -1.194288e+001  1.297019e+002
5.3884375000e+009  1.872646e+000 -3.228997e+001 -3.151137e+001 -9.530143e+001  2.317588e+001  1.246893e+002 -1.213023e+001  1.289124e+002
5.3885625000e+009  1.820296e+000 -3.171565e+001 -3.134259e+001 -1.014254e+002  2.316508e+001  1.243230e+002 -1.240178e+001  1.314999e+002
5.3886875000e+009  2.022238e+000 -3.170136e+001 -3.096274e+001 -9.340269e+001  2.319935e+001  1.246803e+002 -1.227886e+001  1.278698e+002
5.3888125000e+009  1.912672e+000 -3.265162e+001 -3.110667e+001 -9.789072e+001  2.303489e+001  1.244576e+002 -1.237475e+001  1.308101e+002
5.3889375000e+009  1.871932e+000 -3.261210e+001 -3.127399e+001 -9.537835e+001  2.307846e+001  1.244608e+002 -1.225593e+001  1.303126e+002
5.3890625000e+009  1.961658e+000 -3.333505e+001 -3.114252e+001 -9.763739e+001  2.302515e+001  1.239935e+002 -1.252032e+001  1.314817e+002
5.3891875000e+009  1.900755e+000 -3.392513e+001 -3.129255e+001 -9.186552e+001  2.302716e+001  1.241430e+002 -1.238202e+001  1.300367e+002
5.3893125000e+009  1.794953e+000 -3.458003e+001 -3.130105e+001 -1.009839e+002  2.300346e+001  1.241436e+002 -1.264655e+001  1.327360e+002
5.3894375000e+009  1.837538e+000 -3.553588e+001 -3.171805e+001 -1.012879e+002  2.287449e+001  1.242064e+002 -1.243628e+001  1.338534e+002
5.3895625000e+009  1.937348e+000 -3.534189e+001 -3.145795e+001 -9.612261e+001  2.295046e+001  1.242371e+002 -1.254909e+001  1.315074e+002
5.3896875000e+009  1.875271e+000 -3.475620e+001 -3.149105e+001 -9.647891e+001  2.293439e+001  1.236723e+002 -1.261645e+001  1.330654e+002
5.3898125000e+009  1.802797e+000 -3.519753e+001 -3.142531e+001 -1.028895e+002  2.282176e+001  1.240253e+002 -1.259111e+001  1.352905e+002
5.3899375000e+009  1.759485e+000 -3.526342e+001 -3.175873e+001 -1.014884e+002  2.286985e+001  1.242752e+002 -1.254699e+001  1.345854e+002
5.3900625000e+009  1.944845e+000 -3.595326e+001 -3.134225e+001 -9.985197e+001  2.280274e+001  1.237550e+002 -1.265956e+001  1.347232e+002
5.3901875000e+009  2.072468e+000 -3.704691e+001 -3.126660e+001 -9.562817e+001  2.266794e+001  1.241333e+002 -1.242379e+001  1.337102e+002
5.3903125000e+009  1.778223e+000 -3.697680e+001 -3.184060e+001 -1.024143e+002  2.278273e+001  1.240091e+002 -1.262007e+001  1.359566e+002
5.3904375000e+009  2.142245e+000 -3.669696e+001 -3.116226e+001 -9.585600e+001  2.285342e+001  1.233878e+002 -1.292100e+001  1.332977e+002
5.3905625000e+009  1.979864e+000 -3.706017e+001 -3.167700e+001 -1.048106e+002  2.268658e+001  1.236261e+002 -1.263922e+001  1.376841e+002
5.3906875000e+009  1.963100e+000 -3.809212e+001 -3.103832e+001 -1.021616e+002  2.261570e+001  1.238393e+002 -1.282573e+001  1.371892e+002
5.3908125000e+009  1.960849e+000 -3.792101e+001 -3.141739e+001 -1.012746e+002  2.273897e+001  1.238580e+002 -1.289775e+001  1.355303e+002
5.3909375000e+009  1.944186e+000 -3.864497e+001 -3.144310e+001 -1.064641e+002  2.266169e+001  1.238939e+002 -1.285002e+001  1.375850e+002
5.3910625000e+009  1.998051e+000 -4.001541e+001 -3.163769e+001 -1.045520e+002  2.257336e+001  1.238670e+002 -1.274087e+001  1.378459e+002
5.3911875000e+009  1.928002e+000 -3.918367e+001 -3.159279e+001 -1.013461e+002  2.260370e+001  1.239617e+002 -1.291247e+001  1.371842e+002
5.3913125000e+009  1.990517e+000 -4.087939e+001 -3.091047e+001 -1.076336e+002  2.246630e+001  1.237383e+002 -1.304051e+001  1.394986e+002
5.3914375000e+009  2.120750e+000 -4.203445e+001 -3.154346e+001 -1.051678e+002  2.248046e+001  1.235423e+002 -1.293328e+001  1.383579e+002
5.3915625000e+009  2.042326e+000 -3.822028e+001 -3.147178e+001 -1.021307e+002  2.260462e+001  1.236131e+002 -1.297262e+001  1.374261e+002
5.3916875000e+009  2.112812e+000 -4.010529e+001 -3.108662e+001 -1.021275e+002  2.243997e+001  1.232183e+002 -1.304780e+001  1.391340e+002
5.3918125000e+009  2.207672e+000 -4.141978e+001 -3.077065e+001 -1.005360e+002  2.239953e+001  1.232459e+002 -1.318732e+001  1.382312e+002
5.3919375000e+009  2.086409e+000 -4.084037e+001 -3.090171e+001 -1.048216e+002  2.243048e+001  1.232330e+002 -1.316303e+001  1.399310e+002
5.3920625000e+009  2.041529e+000 -4.298301e+001 -3.137856e+001 -1.045219e+002  2.229146e+001  1.236867e+002 -1.299242e+001  1.400462e+002
5.3921875000e+009  2.191070e+000 -4.132385e+001 -3.162679e+001 -1.111369e+002  2.234346e+001  1.232202e+002 -1.290344e+001  1.422945e+002
5.3923125000e+009  1.979320e+000 -4.306265e+001 -3.063608e+001 -1.068267e+002  2.231975e+001  1.236851e+002 -1.331221e+001  1.406541e+002
5.3924375000e+009  2.404196e+000 -4.467240e+001 -3.085304e+001 -1.064880e+002  2.217807e+001  1.231009e+002 -1.323681e+001  1.413365e+002
5.3925625000e+009  2.331012e+000 -4.407630e+001 -3.087012e+001 -1.066694e+002  2.214773e+001  1.228360e+002 -1.323328e+001  1.426266e+002
5.3926875000e+009  2.242611e+000 -4.106917e+001 -3.077746e+001 -1.058840e+002  2.234448e+001  1.230028e+002 -1.339104e+001  1.409352e+002
5.3928125000e+009  2.240412e+000 -4.322206e+001 -3.071466e+001 -1.073412e+002  2.218920e+001  1.229845e+002 -1.330046e+001  1.434976e+002
5.3929375000e+009  2.541924e+000 -4.487800e+001 -3.046276e+001 -1.024627e+002  2.212438e+001  1.225633e+002 -1.342576e+001  1.412681e+002
5.3930625000e+009  2.041146e+000 -4.230163e+001 -3.200399e+001 -1.069963e+002  2.225142e+001  1.235016e+002 -1.298759e+001  1.411430e+002
5.3931875000e+009  2.412540e+000 -4.564046e+001 -3.095414e+001 -1.056656e+002  2.203926e+001  1.228165e+002 -1.330872e+001  1.428676e+002
5.3933125000e+009  2.687167e+000 -4.548766e+001 -3.051944e+001 -1.094506e+002  2.204771e+001  1.222312e+002 -1.338058e+001  1.444564e+002
5.3934375000e+009  2.638899e+000 -4.625964e+001 -3.138162e+001 -1.098674e+002  2.201746e+001  1.226548e+002 -1.316526e+001  1.435735e+002
5.3935625000e+009  2.487644e+000 -4.586994e+001 -3.067967e+001 -1.101283e+002  2.197309e+001  1.226110e+002 -1.340945e+001  1.458143e+002
5.3936875000e+009  2.830520e+000 -4.576659e+001 -3.057367e+001 -1.088590e+002  2.195681e+001  1.219854e+002 -1.348815e+001  1.445554e+002
5.3938125000e+009  2.524312e+000 -4.462143e+001 -3.103518e+001 -1.064162e+002  2.200690e+001  1.225137e+002 -1.340538e+001  1.441395e+002
5.3939375000e+009  2.345360e+000 -4.621790e+001 -3.074230e+001 -1.117074e+002  2.196534e+001  1.228566e+002 -1.338076e+001  1.459635e+002
5.3940625000e+009  2.740541e+000 -4.645739e+001 -2.999470e+001 -1.075496e+002  2.190246e+001  1.222146e+002 -1.371074e+001  1.465018e+002
5.3941875000e+009  2.527603e+000 -4.556380e+001 -3.112244e+001 -1.097347e+002  2.195208e+001  1.224976e+002 -1.332464e+001  1.451509e+002
5.3943125000e+009  2.359826e+000 -4.626064e+001 -3.077764e+001 -1.088620e+002  2.193368e+001  1.227989e+002 -1.333153e+001  1.462741e+002
5.3944375000e+009  2.533108e+000 -4.841421e+001 -3.089438e+001 -1.110647e+002  2.185189e+001  1.228596e+002 -1.340317e+001  1.467396e+002
5.3945625000e+009  2.425851e+000 -4.872842e+001 -3.061997e+001 -1.114810e+002  2.179136e+001  1.229267e+002 -1.348830e+001  1.459771e+002
5.3946875000e+009  2.313120e+000 -4.790534e+001 -3.068448e+001 -1.106456e+002  2.185252e+001  1.230829e+002 -1.347340e+001  1.465905e+002
5.3948125000e+009  2.921142e+000 -4.949704e+001 -3.051052e+001 -1.117993e+002  2.169885e+001  1.218979e+002 -1.351661e+001  1.465819e+002
5.3949375000e+009  2.412210e+000 -4.987097e+001 -3.066777e+001 -1.150838e+002  2.173960e+001  1.229417e+002 -1.342542e+001  1.474768e+002
5.3950625000e+009  2.795572e+000 -5.038261e+001 -3.122765e+001 -1.157348e+002  2.164418e+001  1.226271e+002 -1.323782e+001  1.474257e+002
5.3951875000e+009  2.809906e+000 -4.900797e+001 -3.095262e+001 -1.122392e+002  2.165023e+001  1.221321e+002 -1.342888e+001  1.475214e+002
5.3953125000e+009  2.704188e+000 -4.904032e+001 -3.010240e+001 -1.134560e+002  2.171227e+001  1.224989e+002 -1.369864e+001  1.476399e+002
5.3954375000e+009  3.069033e+000 -4.982722e+001 -3.035579e+001 -1.101372e+002  2.160525e+001  1.218801e+002 -1.365913e+001  1.474346e+002
5.3955625000e+009  2.940414e+000 -5.059231e+001 -3.080073e+001 -1.151779e+002  2.160574e+001  1.222563e+002 -1.337730e+001  1.496646e+002
5.3956875000e+009  2.930838e+000 -4.910036e+001 -3.101245e+001 -1.129116e+002  2.163422e+001  1.222642e+002 -1.335119e+001  1.479285e+002
5.3958125000e+009  2.906471e+000 -5.158088e+001 -3.068583e+001 -1.168378e+002  2.153403e+001  1.221348e+002 -1.336102e+001  1.489079e+002
5.3959375000e+009  2.953965e+000 -5.211848e+001 -3.027710e+001 -1.136760e+002  2.146447e+001  1.221678e+002 -1.367059e+001  1.486842e+002
5.3960625000e+009  2.781224e+000 -5.194897e+001 -3.117807e+001 -1.137470e+002  2.154947e+001  1.227584e+002 -1.331982e+001  1.472982e+002
5.3961875000e+009  3.028479e+000 -5.060867e+001 -3.012678e+001 -1.141770e+002  2.147576e+001  1.218416e+002 -1.366153e+001  1.501123e+002
5.3963125000e+009  2.876573e+000 -5.123151e+001 -3.031402e+001 -1.144074e+002  2.149462e+001  1.225431e+002 -1.365742e+001  1.498807e+002
5.3964375000e+009  3.505608e+000 -5.221785e+001 -3.039610e+001 -1.114550e+002  2.133177e+001  1.213677e+002 -1.357161e+001  1.480250e+002
5.3965625000e+009  3.253486e+000 -5.365566e+001 -2.959889e+001 -1.180092e+002  2.138586e+001  1.222575e+002 -1.364342e+001  1.521251e+002
5.3966875000e+009  3.184068e+000 -5.391836e+001 -3.019529e+001 -1.140814e+002  2.133452e+001  1.220330e+002 -1.362095e+001  1.500709e+002
5.3968125000e+009  3.070690e+000 -5.538271e+001 -3.018444e+001 -1.123371e+002  2.130949e+001  1.226628e+002 -1.365537e+001  1.491231e+002
5.3969375000e+009  3.441250e+000 -5.289604e+001 -3.011622e+001 -1.149329e+002  2.131273e+001  1.220040e+002 -1.360268e+001  1.505701e+002
5.3970625000e+009  3.767074e+000 -5.291291e+001 -2.999481e+001 -1.108483e+002  2.125953e+001  1.211982e+002 -1.387726e+001  1.501326e+002
5.3971875000e+009  3.588541e+000 -5.404470e+001 -3.023723e+001 -1.159521e+002  2.120708e+001  1.216289e+002 -1.354649e+001  1.504663e+002
5.3973125000e+009  3.603212e+000 -5.505255e+001 -2.994047e+001 -1.152641e+002  2.117014e+001  1.213391e+002 -1.356268e+001  1.506065e+002
5.3974375000e+009  3.620820e+000 -5.321387e+001 -2.931768e+001 -1.161398e+002  2.124485e+001  1.211578e+002 -1.375239e+001  1.519402e+002
5.3975625000e+009  3.032985e+000 -5.325469e+001 -3.058961e+001 -1.173051e+002  2.129580e+001  1.217470e+002 -1.341616e+001  1.499844e+002
5.3976875000e+009  3.286615e+000 -5.457062e+001 -3.020273e+001 -1.190808e+002  2.123841e+001  1.221266e+002 -1.347616e+001  1.515053e+002
5.3978125000e+009  3.686791e+000 -5.413605e+001 -3.053635e+001 -1.201427e+002  2.115196e+001  1.218292e+002 -1.337736e+001  1.520938e+002
5.3979375000e+009  3.603982e+000 -5.478694e+001 -3.027920e+001 -1.193283e+002  2.109390e+001  1.217150e+002 -1.343981e+001  1.516300e+002
5.3980625000e+009  3.545014e+000 -5.505035e+001 -3.044451e+001 -1.182102e+002  2.112421e+001  1.218667e+002 -1.335558e+001  1.516223e+002
5.3981875000e+009  3.877347e+000 -5.455482e+001 -2.973918e+001 -1.229092e+002  2.108944e+001  1.214054e+002 -1.328449e+001  1.535372e+002
5.3983125000e+009  3.675416e+000 -5.481532e+001 -3.041046e+001 -1.178947e+002  2.105982e+001  1.215124e+002 -1.334976e+001  1.512788e+002
5.3984375000e+009  3.972407e+000 -5.544694e+001 -2.985198e+001 -1.183127e+002  2.090529e+001  1.208267e+002 -1.345573e+001  1.515903e+002
5.3985625000e+009  3.918241e+000 -5.637693e+001 -2.998203e+001 -1.197661e+002  2.097785e+001  1.218305e+002 -1.335543e+001  1.526623e+002
5.3986875000e+009  3.772889e+000 -5.779796e+001 -3.121838e+001 -1.215285e+002  2.098223e+001  1.221590e+002 -1.292265e+001  1.502613e+002
5.3988125000e+009  3.614091e+000 -5.632843e+001 -2.970444e+001 -1.194189e+002  2.100430e+001  1.219689e+002 -1.331761e+001  1.526062e+002
5.3989375000e+009  4.180389e+000 -5.599775e+001 -2.963013e+001 -1.194451e+002  2.092320e+001  1.211705e+002 -1.328396e+001  1.522399e+002
5.3990625000e+009  3.744680e+000 -5.783442e+001 -3.006928e+001 -1.226549e+002  2.088267e+001  1.224150e+002 -1.311449e+001  1.522340e+002
5.3991875000e+009  4.191150e+000 -5.462958e+001 -3.027949e+001 -1.165222e+002  2.087753e+001  1.212368e+002 -1.325128e+001  1.508227e+002
5.3993125000e+009  4.158011e+000 -5.732576e+001 -2.913985e+001 -1.241888e+002  2.088965e+001  1.210489e+002 -1.297178e+001  1.537698e+002
5.3994375000e+009  4.016393e+000 -5.767674e+001 -2.993947e+001 -1.194061e+002  2.090235e+001  1.221153e+002 -1.311043e+001  1.512080e+002
5.3995625000e+009  4.010500e+000 -5.835756e+001 -3.005829e+001 -1.232336e+002  2.087056e+001  1.219908e+002 -1.282082e+001  1.516962e+002
5.3996875000e+009  4.280843e+000 -5.679521e+001 -2.958363e+001 -1.239198e+002  2.083867e+001  1.217417e+002 -1.295564e+001  1.526492e+002
5.3998125000e+009  3.989249e+000 -5.980144e+001 -3.017308e+001 -1.207445e+002  2.075865e+001  1.224873e+002 -1.282898e+001  1.504742e+002
5.3999375000e+009  4.167970e+000 -6.013660e+001 -2.978334e+001 -1.239436e+002  2.063993e+001  1.223254e+002 -1.271317e+001  1.512268e+002
5.4000625000e+009  4.462574e+000 -5.868617e+001 -2.968762e+001 -1.233887e+002  2.065216e+001  1.221811e+002 -1.273506e+001  1.514350e+002
5.4001875000e+009  4.193110e+000 -5.848360e+001 -2.932512e+001 -1.270393e+002  2.074735e+001  1.215258e+002 -1.256285e+001  1.510983e+002
5.4003125000e+009  4.100386e+000 -5.930250e+001 -3.034668e+001 -1.205048e+002  2.068938e+001  1.223347e+002 -1.262411e+001  1.483619e+002
5.4004375000e+009  4.134527e+000 -5.896341e+001 -3.005745e+001 -1.260574e+002  2.066013e+001  1.231946e+002 -1.251847e+001  1.489043e+002
5.4005625000e+009  4.181610e+000 -5.987520e+001 -2.966876e+001 -1.243743e+002  2.065458e+001  1.231256e+002 -1.257614e+001  1.487611e+002
5.4006875000e+009  4.366294e+000 -5.974210e+001 -3.045325e+001 -1.228548e+002  2.062328e+001  1.224383e+002 -1.241765e+001  1.465484e+002
5.4008125000e+009  4.260923e+000 -6.063912e+001 -2.909110e+001 -1.225508e+002  2.063911e+001  1.235581e+002 -1.276455e+001  1.480396e+002
5.4009375000e+009  4.145363e+000 -6.101610e+001 -3.021363e+001 -1.267901e+002  2.066540e+001  1.240120e+002 -1.245977e+001  1.458136e+002
5.4010625000e+009  4.267376e+000 -5.845362e+001 -3.036088e+001 -1.247749e+002  2.075980e+001  1.231917e+002 -1.256791e+001  1.445387e+002
5.4011875000e+009  4.267172e+000 -5.993495e+001 -3.057267e+001 -1.238506e+002  2.073462e+001  1.248496e+002 -1.276246e+001  1.441015e+002
5.4013125000e+009  4.132008e+000 -6.099659e+001 -3.025363e+001 -1.236790e+002  2.078300e+001  1.236820e+002 -1.272794e+001  1.431561e+002
5.4014375000e+009  4.264095e+000 -6.021322e+001 -2.956704e+001 -1.227981e+002  2.075229e+001  1.243631e+002 -1.312118e+001  1.439088e+002
5.4015625000e+009  4.124624e+000 -6.137432e+001 -2.920860e+001 -1.247035e+002  2.075041e+001  1.249103e+002 -1.332701e+001  1.443482e+002
5.4016875000e+009  4.353349e+000 -6.148870e+001 -2.949073e+001 -1.232002e+002  2.085318e+001  1.243179e+002 -1.327127e+001  1.438722e+002
5.4018125000e+009  4.302255e+000 -6.332007e+001 -2.904870e+001 -1.291317e+002  2.072626e+001  1.250362e+002 -1.334552e+001  1.460179e+002
5.4019375000e+009  4.277039e+000 -6.195260e+001 -3.016547e+001 -1.285145e+002  2.086161e+001  1.249231e+002 -1.335746e+001  1.434792e+002
5.4020625000e+009  4.310852e+000 -6.360872e+001 -2.898308e+001 -1.219424e+002  2.091913e+001  1.245681e+002 -1.381061e+001  1.450700e+002
5.4021875000e+009  4.497127e+000 -6.147721e+001 -2.899463e+001 -1.264185e+002  2.087296e+001  1.237635e+002 -1.371956e+001  1.465835e+002
5.4023125000e+009  4.644139e+000 -6.264384e+001 -2.969938e+001 -1.258539e+002  2.081337e+001  1.247620e+002 -1.387647e+001  1.447009e+002
5.4024375000e+009  4.600787e+000 -6.377253e+001 -2.925257e+001 -1.266975e+002  2.086340e+001  1.240156e+002 -1.379634e+001  1.466096e+002
5.4025625000e+009  4.656817e+000 -6.433465e+001 -2.921424e+001 -1.264113e+002  2.080615e+001  1.245378e+002 -1.396339e+001  1.470811e+002
5.4026875000e+009  4.674156e+000 -6.240156e+001 -2.940968e+001 -1.293552e+002  2.087444e+001  1.242148e+002 -1.392525e+001  1.473307e+002
5.4028125000e+009  4.529856e+000 -6.560139e+001 -2.881057e+001 -1.257257e+002  2.090135e+001  1.248061e+002 -1.412415e+001  1.486934e+002
5.4029375000e+009  4.679646e+000 -6.555462e+001 -2.966331e+001 -1.215659e+002  2.090262e+001  1.245379e+002 -1.415870e+001  1.462120e+002
5.4030625000e+009  4.614649e+000 -6.512823e+001 -2.930149e+001 -1.299787e+002  2.080880e+001  1.255048e+002 -1.406170e+001  1.483156e+002
5.4031875000e+009  4.698280e+000 -6.703662e+001 -2.893946e+001 -1.228996e+002  2.085475e+001  1.251225e+002 -1.434721e+001  1.482519e+002
5.4033125000e+009  4.672442e+000 -6.735270e+001 -2.967002e+001 -1.286553e+002  2.086907e+001  1.251306e+002 -1.396249e+001  1.484259e+002
5.4034375000e+009  4.845592e+000 -6.638588e+001 -2.935387e+001 -1.232774e+002  2.080375e+001  1.241777e+002 -1.435029e+001  1.479801e+002
5.4035625000e+009  4.761688e+000 -6.764246e+001 -2.926948e+001 -1.280206e+002  2.088404e+001  1.250407e+002 -1.405037e+001  1.494840e+002
5.4036875000e+009  4.844773e+000 -6.643953e+001 -2.969008e+001 -1.302121e+002  2.084525e+001  1.247983e+002 -1.395230e+001  1.485206e+002
5.4038125000e+009  4.900259e+000 -6.785339e+001 -2.914851e+001 -1.288791e+002  2.076131e+001  1.256668e+002 -1.415935e+001  1.495456e+002
5.4039375000e+009  4.917071e+000 -6.885316e+001 -2.909853e+001 -1.301684e+002  2.090490e+001  1.257414e+002 -1.406330e+001  1.502522e+002
5.4040625000e+009  4.831757e+000 -6.928403e+001 -2.907133e+001 -1.327922e+002  2.087910e+001  1.255535e+002 -1.390047e+001  1.504935e+002
5.4041875000e+009  4.978202e+000 -6.845443e+001 -2.923951e+001 -1.315340e+002  2.077567e+001  1.252616e+002 -1.396037e+001  1.499361e+002
5.4043125000e+009  4.952055e+000 -6.927934e+001 -2.939508e+001 -1.304912e+002  2.087616e+001  1.246650e+002 -1.389256e+001  1.507245e+002
5.4044375000e+009  4.927723e+000 -7.066833e+001 -2.858880e+001 -1.305672e+002  2.091080e+001  1.256815e+002 -1.403191e+001  1.516361e+002
5.4045625000e+009  4.967371e+000 -7.051665e+001 -2.886701e+001 -1.316956e+002  2.079863e+001  1.251049e+002 -1.395535e+001  1.508510e+002
5.4046875000e+009  4.984316e+000 -7.148087e+001 -2.826380e+001 -1.280004e+002  2.082560e+001  1.258613e+002 -1.428112e+001  1.520147e+002
5.4048125000e+009  5.051692e+000 -7.209758e+001 -2.891058e+001 -1.339469e+002  2.083989e+001  1.248532e+002 -1.378419e+001  1.514429e+002
5.4049375000e+009  5.051205e+000 -7.091312e+001 -2.878102e+001 -1.358684e+002  2.085416e+001  1.254420e+002 -1.374783e+001  1.513747e+002
5.4050625000e+009  5.069024e+000 -7.264439e+001 -2.889975e+001 -1.357672e+002  2.089334e+001  1.258457e+002 -1.375809e+001  1.515019e+002
5.4051875000e+009  5.098596e+000 -7.330094e+001 -2.879196e+001 -1.317908e+002  2.089974e+001  1.258395e+002 -1.392807e+001  1.513510e+002
5.4053125000e+009  5.159059e+000 -7.311134e+001 -2.899106e+001 -1.337792e+002  2.083299e+001  1.256258e+002 -1.382956e+001  1.510781e+002
5.4054375000e+009  5.102378e+000 -7.391732e+001 -2.851437e+001 -1.334496e+002  2.099907e+001  1.259503e+002 -1.387762e+001  1.520237e+002
5.4055625000e+009  5.190579e+000 -7.400126e+001 -2.842219e+001 -1.351319e+002  2.104882e+001  1.253399e+002 -1.378525e+001  1.523877e+002
5.4056875000e+009  5.162627e+000 -7.385888e+001 -2.904644e+001 -1.393039e+002  2.098845e+001  1.257593e+002 -1.356473e+001  1.510217e+002
5.4058125000e+009  5.261839e+000 -7.520449e+001 -2.885615e+001 -1.361898e+002  2.106524e+001  1.259803e+002 -1.368189e+001  1.513480e+002
5.4059375000e+009  5.271060e+000 -7.535304e+001 -2.872706e+001 -1.342977e+002  2.098445e+001  1.258306e+002 -1.374125e+001  1.511779e+002
5.4060625000e+009  5.224099e+000 -7.569637e+001 -2.885239e+001 -1.348076e+002  2.098725e+001  1.263166e+002 -1.367651e+001  1.505952e+002
5.4061875000e+009  5.274674e+000 -7.657798e+001 -2.881523e+001 -1.385137e+002  2.093449e+001  1.264302e+002 -1.339307e+001  1.506228e+002
5.4063125000e+009  5.270876e+000 -7.670385e+001 -2.852720e+001 -1.393335e+002  2.105897e+001  1.265278e+002 -1.348524e+001  1.511162e+002
5.4064375000e+009  5.291027e+000 -7.653217e+001 -2.845199e+001 -1.392750e+002  2.104591e+001  1.260638e+002 -1.346080e+001  1.512980e+002
5.4065625000e+009  5.307326e+000 -7.718774e+001 -2.857598e+001 -1.439257e+002  2.106864e+001  1.270750e+002 -1.325070e+001  1.502863e+002
5.4066875000e+009  5.386710e+000 -7.753363e+001 -2.831977e+001 -1.399259e+002  2.107086e+001  1.258259e+002 -1.333262e+001  1.510396e+002
5.4068125000e+009  5.410990e+000 -7.814132e+001 -2.881639e+001 -1.430490e+002  2.106125e+001  1.261258e+002 -1.317010e+001  1.499122e+002
5.4069375000e+009  5.382637e+000 -7.827329e+001 -2.900688e+001 -1.410425e+002  2.116271e+001  1.267026e+002 -1.328314e+001  1.492029e+002
5.4070625000e+009  5.470047e+000 -7.858546e+001 -2.960973e+001 -1.410164e+002  2.117895e+001  1.267677e+002 -1.337935e+001  1.476214e+002
5.4071875000e+009  5.453398e+000 -7.874273e+001 -2.807820e+001 -1.417914e+002  2.106682e+001  1.262728e+002 -1.315232e+001  1.509156e+002
5.4073125000e+009  5.488892e+000 -7.841962e+001 -2.843547e+001 -1.455669e+002  2.121904e+001  1.260594e+002 -1.303968e+001  1.498184e+002
5.4074375000e+009  5.526261e+000 -8.018543e+001 -2.838370e+001 -1.372728e+002  2.121629e+001  1.269127e+002 -1.346719e+001  1.499578e+002
5.4075625000e+009  5.574652e+000 -8.015791e+001 -2.893610e+001 -1.440593e+002  2.120150e+001  1.267188e+002 -1.296478e+001  1.485087e+002
5.4076875000e+009  5.621160e+000 -7.986720e+001 -2.825977e+001 -1.390234e+002  2.123669e+001  1.265239e+002 -1.330986e+001  1.496117e+002
5.4078125000e+009  5.614957e+000 -8.056339e+001 -2.840488e+001 -1.442408e+002  2.130353e+001  1.267068e+002 -1.304156e+001  1.489143e+002
5.4079375000e+009  5.528967e+000 -8.081542e+001 -2.827442e+001 -1.416287e+002  2.123554e+001  1.262135e+002 -1.301659e+001  1.495820e+002
5.4080625000e+009  5.594625e+000 -8.128484e+001 -2.827790e+001 -1.460486e+002  2.127769e+001  1.269042e+002 -1.276979e+001  1.480541e+002
5.4081875000e+009  5.592004e+000 -8.118298e+001 -2.898436e+001 -1.450763e+002  2.129406e+001  1.262162e+002 -1.291893e+001  1.472733e+002
5.4083125000e+009  5.597010e+000 -8.243672e+001 -2.809780e+001 -1.450288e+002  2.132119e+001  1.265391e+002 -1.282894e+001  1.480814e+002
5.4084375000e+009  5.666746e+000 -8.264082e+001 -2.841787e+001 -1.448974e+002  2.134001e+001  1.270795e+002 -1.276676e+001  1.472581e+002
5.4085625000e+009  5.765296e+000 -8.223049e+001 -2.918712e+001 -1.464532e+002  2.135890e+001  1.267471e+002 -1.273163e+001  1.457593e+002
5.4086875000e+009  5.789156e+000 -8.319052e+001 -2.806095e+001 -1.446713e+002  2.143646e+001  1.269270e+002 -1.291416e+001  1.474984e+002
5.4088125000e+009  5.630798e+000 -8.404435e+001 -2.828101e+001 -1.470450e+002  2.146128e+001  1.269282e+002 -1.252418e+001  1.468578e+002
5.4089375000e+009  5.805675e+000 -8.363456e+001 -2.861579e+001 -1.494989e+002  2.144459e+001  1.271124e+002 -1.250392e+001  1.457119e+002
5.4090625000e+009  5.797653e+000 -8.412119e+001 -2.909921e+001 -1.420470e+002  2.146615e+001  1.266988e+002 -1.274364e+001  1.450062e+002
5.4091875000e+009  5.725110e+000 -8.407007e+001 -2.889974e+001 -1.475853e+002  2.153788e+001  1.267770e+002 -1.255323e+001  1.447451e+002
5.4093125000e+009  5.907190e+000 -8.434152e+001 -2.830286e+001 -1.476531e+002  2.154622e+001  1.268378e+002 -1.249859e+001  1.454037e+002
5.4094375000e+009  5.912946e+000 -8.426888e+001 -2.840107e+001 -1.471040e+002  2.152279e+001  1.266897e+002 -1.239864e+001  1.452832e+002
5.4095625000e+009  5.841853e+000 -8.500648e+001 -2.824120e+001 -1.437299e+002  2.161159e+001  1.265467e+002 -1.261400e+001  1.445331e+002
5.4096875000e+009  6.133413e+000 -8.536439e+001 -2.860495e+001 -1.496331e+002  2.155795e+001  1.269473e+002 -1.229024e+001  1.437918e+002
5.4098125000e+009  6.048980e+000 -8.637556e+001 -2.799731e+001 -1.503585e+002  2.159402e+001  1.266734e+002 -1.218823e+001  1.453086e+002
5.4099375000e+009  6.124274e+000 -8.681032e+001 -2.794590e+001 -1.459492e+002  2.164228e+001  1.271473e+002 -1.237202e+001  1.450251e+002
5.4100625000e+009  6.053283e+000 -8.524906e+001 -2.840000e+001 -1.467397e+002  2.167525e+001  1.263890e+002 -1.231989e+001  1.434176e+002
5.4101875000e+009  5.984228e+000 -8.638622e+001 -2.839765e+001 -1.506467e+002  2.171194e+001  1.265449e+002 -1.212844e+001  1.435868e+002
5.4103125000e+009  6.090809e+000 -8.716460e+001 -2.792869e+001 -1.488094e+002  2.174417e+001  1.267846e+002 -1.215582e+001  1.444428e+002
5.4104375000e+009  5.862302e+000 -8.561244e+001 -2.843144e+001 -1.489489e+002  2.185534e+001  1.263309e+002 -1.211976e+001  1.417337e+002
5.4105625000e+009  6.089971e+000 -8.617379e+001 -2.899522e+001 -1.528017e+002  2.178832e+001  1.261572e+002 -1.194200e+001  1.411726e+002
5.4106875000e+009  6.100110e+000 -8.726170e+001 -2.861852e+001 -1.524266e+002  2.185762e+001  1.266261e+002 -1.193995e+001  1.416175e+002
5.4108125000e+009  6.003666e+000 -8.719492e+001 -2.796104e+001 -1.517182e+002  2.190237e+001  1.265615e+002 -1.197530e+001  1.415815e+002
5.4109375000e+009  6.316633e+000 -8.845205e+001 -2.759068e+001 -1.515459e+002  2.183671e+001  1.267773e+002 -1.172467e+001  1.430142e+002
5.4110625000e+009  6.145443e+000 -8.737498e+001 -2.828807e+001 -1.487883e+002  2.193237e+001  1.261278e+002 -1.207978e+001  1.404824e+002
5.4111875000e+009  6.034056e+000 -8.789683e+001 -2.845097e+001 -1.514332e+002  2.200910e+001  1.262094e+002 -1.182748e+001  1.395117e+002
5.4113125000e+009  6.295306e+000 -8.738100e+001 -2.817989e+001 -1.526380e+002  2.193365e+001  1.261678e+002 -1.158358e+001  1.413283e+002
5.4114375000e+009  6.442574e+000 -8.696420e+001 -2.905022e+001 -1.464412e+002  2.189746e+001  1.262368e+002 -1.199315e+001  1.390437e+002
5.4115625000e+009  6.136840e+000 -8.770209e+001 -2.803947e+001 -1.495152e+002  2.205201e+001  1.260013e+002 -1.170389e+001  1.404905e+002
5.4116875000e+009  6.360821e+000 -8.891362e+001 -2.845490e+001 -1.545017e+002  2.202328e+001  1.261763e+002 -1.148646e+001  1.402056e+002
5.4118125000e+009  6.410738e+000 -8.846099e+001 -2.780623e+001 -1.498577e+002  2.201460e+001  1.258898e+002 -1.176337e+001  1.396887e+002
5.4119375000e+009  6.194443e+000 -8.897651e+001 -2.774806e+001 -1.569614e+002  2.212485e+001  1.259380e+002 -1.137642e+001  1.397545e+002
5.4120625000e+009  6.510441e+000 -8.913851e+001 -2.843629e+001 -1.555804e+002  2.210763e+001  1.260247e+002 -1.128383e+001  1.392049e+002
5.4121875000e+009  6.300297e+000 -8.894424e+001 -2.863507e+001 -1.500412e+002  2.212535e+001  1.253778e+002 -1.157619e+001  1.374794e+002
5.4123125000e+009  6.329692e+000 -8.832274e+001 -2.864740e+001 -1.535438e+002  2.219419e+001  1.253513e+002 -1.132887e+001  1.367338e+002
5.4124375000e+009  6.890040e+000 -8.954076e+001 -2.782643e+001 -1.526434e+002  2.211427e+001  1.260034e+002 -1.122290e+001  1.389389e+002
5.4125625000e+009  6.507679e+000 -8.843015e+001 -2.782247e+001 -1.538081e+002  2.218251e+001  1.253459e+002 -1.128565e+001  1.384808e+002
5.4126875000e+009  6.471624e+000 -8.780783e+001 -2.904395e+001 -1.503870e+002  2.222611e+001  1.248409e+002 -1.136099e+001  1.358909e+002
5.4128125000e+009  6.406866e+000 -9.018523e+001 -2.764147e+001 -1.553573e+002  2.227204e+001  1.252686e+002 -1.121720e+001  1.384118e+002
5.4129375000e+009  6.697688e+000 -9.096510e+001 -2.772321e+001 -1.556521e+002  2.229602e+001  1.257556e+002 -1.093733e+001  1.381232e+002
5.4130625000e+009  6.753352e+000 -9.130405e+001 -2.840024e+001 -1.595052e+002  2.231956e+001  1.256708e+002 -1.095687e+001  1.366614e+002
5.4131875000e+009  6.516775e+000 -9.090384e+001 -2.847862e+001 -1.541775e+002  2.237839e+001  1.253287e+002 -1.108910e+001  1.372238e+002
5.4133125000e+009  6.380630e+000 -9.086883e+001 -2.769040e+001 -1.569778e+002  2.246112e+001  1.252813e+002 -1.080457e+001  1.379217e+002
5.4134375000e+009  5.783363e+000 -9.084425e+001 -2.847873e+001 -1.542880e+002  2.258489e+001  1.245152e+002 -1.099756e+001  1.366527e+002
5.4135625000e+009  6.568958e+000 -9.212993e+001 -2.797610e+001 -1.534994e+002  2.247025e+001  1.253928e+002 -1.102787e+001  1.389053e+002
5.4136875000e+009  6.323606e+000 -9.152560e+001 -2.767401e+001 -1.567251e+002  2.252791e+001  1.251926e+002 -1.082435e+001  1.382229e+002
5.4138125000e+009  6.416584e+000 -9.147485e+001 -2.814521e+001 -1.552298e+002  2.256802e+001  1.248876e+002 -1.084060e+001  1.371001e+002
5.4139375000e+009  6.262028e+000 -9.064452e+001 -2.839597e+001 -1.569948e+002  2.257294e+001  1.243410e+002 -1.082124e+001  1.369817e+002
5.4140625000e+009  6.173828e+000 -9.291371e+001 -2.801582e+001 -1.592987e+002  2.272380e+001  1.247244e+002 -1.056853e+001  1.366251e+002
5.4141875000e+009  5.950558e+000 -9.277157e+001 -2.817388e+001 -1.532516e+002  2.280615e+001  1.247164e+002 -1.071019e+001  1.380888e+002
5.4143125000e+009  6.437689e+000 -9.378011e+001 -2.815343e+001 -1.590631e+002  2.271620e+001  1.253747e+002 -1.058349e+001  1.377690e+002
5.4144375000e+009  6.302640e+000 -9.273498e+001 -2.802466e+001 -1.555145e+002  2.279277e+001  1.245563e+002 -1.059528e+001  1.371310e+002
5.4145625000e+009  5.968738e+000 -9.173665e+001 -2.863275e+001 -1.574880e+002  2.284353e+001  1.236050e+002 -1.040130e+001  1.357151e+002
5.4146875000e+009  6.548417e+000 -9.393818e+001 -2.805154e+001 -1.591250e+002  2.281738e+001  1.254707e+002 -1.049684e+001  1.388249e+002
5.4148125000e+009  6.359929e+000 -9.450977e+001 -2.840033e+001 -1.561727e+002  2.287867e+001  1.247127e+002 -1.058737e+001  1.374796e+002
5.4149375000e+009  5.827921e+000 -9.493169e+001 -2.881109e+001 -1.588439e+002  2.301901e+001  1.232415e+002 -1.045796e+001  1.346217e+002
5.4150625000e+009  5.776505e+000 -9.578548e+001 -2.802039e+001 -1.610201e+002  2.303984e+001  1.241211e+002 -1.035742e+001  1.375806e+002
5.4151875000e+009  6.203069e+000 -9.448283e+001 -2.826630e+001 -1.610405e+002  2.296206e+001  1.236851e+002 -1.039811e+001  1.361033e+002
5.4153125000e+009  5.759056e+000 -9.633453e+001 -2.792595e+001 -1.656533e+002  2.311667e+001  1.235701e+002 -1.011768e+001  1.360078e+002
5.4154375000e+009  5.860948e+000 -9.594972e+001 -2.843293e+001 -1.617681e+002  2.317512e+001  1.242066e+002 -1.025249e+001  1.375338e+002
5.4155625000e+009  5.990347e+000 -9.613158e+001 -2.761342e+001 -1.627624e+002  2.317460e+001  1.240318e+002 -1.005974e+001  1.378133e+002
5.4156875000e+009  5.903095e+000 -9.708932e+001 -2.913236e+001 -1.624682e+002  2.321753e+001  1.228728e+002 -1.015868e+001  1.340039e+002
5.4158125000e+009  5.981847e+000 -9.715771e+001 -2.816546e+001 -1.624387e+002  2.312736e+001  1.232157e+002 -1.035108e+001  1.362440e+002
5.4159375000e+009  5.961870e+000 -9.693159e+001 -2.814898e+001 -1.646792e+002  2.327588e+001  1.227857e+002 -1.000445e+001  1.350401e+002
5.4160625000e+009  5.631337e+000 -9.723775e+001 -2.825453e+001 -1.630312e+002  2.332302e+001  1.230067e+002 -9.997257e+000  1.362392e+002
5.4161875000e+009  5.936190e+000 -9.763855e+001 -2.860885e+001 -1.628611e+002  2.335592e+001  1.229003e+002 -1.008819e+001  1.352381e+002
5.4163125000e+009  5.635826e+000 -9.810462e+001 -2.881048e+001 -1.638892e+002  2.332450e+001  1.228548e+002 -1.024528e+001  1.357802e+002
5.4164375000e+009  5.780469e+000 -9.789408e+001 -2.813875e+001 -1.636707e+002  2.338202e+001  1.222120e+002 -9.973353e+000  1.348513e+002
5.4165625000e+009  5.408763e+000 -9.932363e+001 -2.840554e+001 -1.638750e+002  2.343705e+001  1.220087e+002 -1.009890e+001  1.350356e+002
5.4166875000e+009  5.733978e+000 -9.871647e+001 -2.860362e+001 -1.677882e+002  2.347677e+001  1.226136e+002 -9.869593e+000  1.355218e+002
5.4168125000e+009  5.557494e+000 -1.000199e+002 -2.857506e+001 -1.654418e+002  2.362165e+001  1.224320e+002 -9.820793e+000  1.351314e+002
5.4169375000e+009  5.801859e+000 -9.959649e+001 -2.875723e+001 -1.653309e+002  2.363169e+001  1.215959e+002 -9.655589e+000  1.338113e+002
5.4170625000e+009  5.735898e+000 -9.929990e+001 -2.872426e+001 -1.618150e+002  2.363482e+001  1.219800e+002 -9.887494e+000  1.352505e+002
5.4171875000e+009  5.515813e+000 -9.997199e+001 -2.862059e+001 -1.641743e+002  2.375545e+001  1.208031e+002 -9.593085e+000  1.334990e+002
5.4173125000e+009  5.705874e+000 -1.001064e+002 -2.807759e+001 -1.662874e+002  2.357966e+001  1.224470e+002 -9.821143e+000  1.365581e+002
5.4174375000e+009  5.832809e+000 -9.983665e+001 -2.854949e+001 -1.666441e+002  2.363450e+001  1.224365e+002 -9.792259e+000  1.359206e+002
5.4175625000e+009  5.299496e+000 -1.016546e+002 -2.921076e+001 -1.665637e+002  2.375466e+001  1.209698e+002 -9.784681e+000  1.340101e+002
5.4176875000e+009  5.700865e+000 -9.956983e+001 -2.889587e+001 -1.678371e+002  2.372202e+001  1.219414e+002 -9.656816e+000  1.352888e+002
5.4178125000e+009  5.862486e+000 -1.001420e+002 -2.893580e+001 -1.667221e+002  2.376203e+001  1.215624e+002 -9.693467e+000  1.347354e+002
5.4179375000e+009  5.544530e+000 -1.010973e+002 -2.827125e+001 -1.692003e+002  2.395992e+001  1.203198e+002 -9.255185e+000  1.334068e+002
5.4180625000e+009  5.521189e+000 -1.008400e+002 -2.916255e+001 -1.681838e+002  2.381518e+001  1.204455e+002 -9.609653e+000  1.338736e+002
5.4181875000e+009  5.395738e+000 -1.022972e+002 -2.907665e+001 -1.692649e+002  2.371312e+001  1.211177e+002 -9.926473e+000  1.349148e+002
5.4183125000e+009  5.418059e+000 -1.029635e+002 -2.862613e+001 -1.698117e+002  2.408289e+001  1.203232e+002 -9.251770e+000  1.337097e+002
5.4184375000e+009  5.370137e+000 -1.023407e+002 -2.855662e+001 -1.710262e+002  2.396190e+001  1.208081e+002 -9.443930e+000  1.346574e+002
5.4185625000e+009  5.398330e+000 -1.020856e+002 -2.910397e+001 -1.710280e+002  2.394585e+001  1.202721e+002 -9.525843e+000  1.339726e+002
5.4186875000e+009  5.383675e+000 -1.025803e+002 -2.879865e+001 -1.710097e+002  2.411337e+001  1.202526e+002 -9.258492e+000  1.340506e+002
5.4188125000e+009  5.407144e+000 -1.029861e+002 -2.859304e+001 -1.702367e+002  2.407600e+001  1.196585e+002 -9.342552e+000  1.334743e+002
5.4189375000e+009  5.464807e+000 -1.035648e+002 -2.882081e+001 -1.672725e+002  2.393789e+001  1.202495e+002 -9.613026e+000  1.350079e+002
5.4190625000e+009  5.131513e+000 -1.049493e+002 -2.892508e+001 -1.683594e+002  2.423496e+001  1.199620e+002 -9.204914e+000  1.346889e+002
5.4191875000e+009  5.237581e+000 -1.050072e+002 -2.933381e+001 -1.726087e+002  2.403758e+001  1.199362e+002 -9.629660e+000  1.338864e+002
5.4193125000e+009  5.371090e+000 -1.029037e+002 -2.844125e+001 -1.744671e+002  2.419619e+001  1.189896e+002 -9.101425e+000  1.327751e+002
5.4194375000e+009  5.196188e+000 -1.052632e+002 -2.903502e+001 -1.692210e+002  2.432804e+001  1.182030e+002 -9.169792e+000  1.321956e+002
5.4195625000e+009  5.163669e+000 -1.044531e+002 -2.887519e+001 -1.732170e+002  2.428892e+001  1.192857e+002 -9.170805e+000  1.337563e+002
5.4196875000e+009  5.461631e+000 -1.039038e+002 -2.857573e+001 -1.689410e+002  2.414617e+001  1.184254e+002 -9.345391e+000  1.332883e+002
5.4198125000e+009  5.170027e+000 -1.053625e+002 -2.953840e+001 -1.743129e+002  2.431379e+001  1.183890e+002 -9.241362e+000  1.324960e+002
5.4199375000e+009  5.256967e+000 -1.048789e+002 -2.830435e+001 -1.717425e+002  2.408172e+001  1.185270e+002 -9.513597e+000  1.335365e+002
5.4200625000e+009  5.232185e+000 -1.049339e+002 -2.910011e+001 -1.724100e+002  2.437870e+001  1.187555e+002 -9.121334e+000  1.337201e+002
5.4201875000e+009  4.899597e+000 -1.063129e+002 -2.930728e+001 -1.735719e+002  2.460331e+001  1.171187e+002 -8.880787e+000  1.313933e+002
5.4203125000e+009  5.035518e+000 -1.055202e+002 -2.901251e+001 -1.761636e+002  2.439241e+001  1.175847e+002 -9.078799e+000  1.322122e+002
5.4204375000e+009  5.167151e+000 -1.050130e+002 -2.887971e+001 -1.754069e+002  2.444257e+001  1.170916e+002 -9.089240e+000  1.312145e+002
5.4205625000e+009  5.021799e+000 -1.065400e+002 -2.952087e+001 -1.750219e+002  2.466800e+001  1.169796e+002 -8.794215e+000  1.315759e+002
5.4206875000e+009  4.869002e+000 -1.064986e+002 -2.891377e+001 -1.724887e+002  2.458595e+001  1.171043e+002 -8.913093e+000  1.324685e+002
5.4208125000e+009  5.083778e+000 -1.051082e+002 -2.885472e+001 -1.737607e+002  2.462367e+001  1.172365e+002 -8.779094e+000  1.324821e+002
5.4209375000e+009  4.921473e+000 -1.075171e+002 -2.907147e+001 -1.732084e+002  2.465972e+001  1.165890e+002 -8.852149e+000  1.321397e+002
5.4210625000e+009  4.825028e+000 -1.067604e+002 -2.917586e+001 -1.725029e+002  2.457425e+001  1.168570e+002 -8.963246e+000  1.329884e+002
5.4211875000e+009  5.032465e+000 -1.059445e+002 -2.894230e+001 -1.773290e+002  2.464604e+001  1.156306e+002 -8.842649e+000  1.303684e+002
5.4213125000e+009  4.815674e+000 -1.080478e+002 -2.943885e+001 -1.796926e+002  2.474901e+001  1.163821e+002 -8.775273e+000  1.318061e+002
5.4214375000e+009  4.879045e+000 -1.084094e+002 -2.958697e+001 -1.765111e+002  2.467006e+001  1.166240e+002 -8.905077e+000  1.327590e+002
5.4215625000e+009  4.884794e+000 -1.077376e+002 -2.912125e+001 -1.752905e+002  2.471239e+001  1.162268e+002 -8.814181e+000  1.323428e+002
5.4216875000e+009  4.822983e+000 -1.078322e+002 -2.919987e+001 -1.770596e+002  2.484484e+001  1.160344e+002 -8.632788e+000  1.323083e+002
5.4218125000e+009  4.810538e+000 -1.079552e+002 -2.909078e+001 -1.788803e+002  2.483768e+001  1.154080e+002 -8.634169e+000  1.312536e+002
5.4219375000e+009  4.851608e+000 -1.080719e+002 -2.990198e+001 -1.791559e+002  2.474879e+001  1.152803e+002 -8.829084e+000  1.311011e+002
5.4220625000e+009  4.743209e+000 -1.088686e+002 -2.969483e+001  1.795277e+002  2.515346e+001  1.155562e+002 -8.258160e+000  1.316197e+002
5.4221875000e+009  4.729764e+000 -1.092755e+002 -2.981835e+001  1.766122e+002  2.483857e+001  1.154964e+002 -8.731482e+000  1.319465e+002
5.4223125000e+009  4.711473e+000 -1.078023e+002 -2.928914e+001 -1.778603e+002  2.488437e+001  1.146317e+002 -8.615886e+000  1.309204e+002
5.4224375000e+009  4.760962e+000 -1.096221e+002 -2.924658e+001  1.772720e+002  2.481762e+001  1.140199e+002 -8.717243e+000  1.301597e+002
5.4225625000e+009  4.687324e+000 -1.099672e+002 -2.986456e+001 -1.755445e+002  2.515706e+001  1.144652e+002 -8.317336e+000  1.313934e+002
5.4226875000e+009  4.665246e+000 -1.096088e+002 -2.905751e+001  1.797146e+002  2.482395e+001  1.134468e+002 -8.747910e+000  1.302166e+002
5.4228125000e+009  4.644275e+000 -1.104118e+002 -2.991696e+001 -1.783757e+002  2.506828e+001  1.142433e+002 -8.482156e+000  1.313927e+002
5.4229375000e+009  4.601815e+000 -1.104243e+002 -2.947806e+001  1.799299e+002  2.505465e+001  1.136048e+002 -8.452971e+000  1.307436e+002
5.4230625000e+009  4.679100e+000 -1.099785e+002 -2.981609e+001 -1.768773e+002  2.498082e+001  1.127343e+002 -8.625134e+000  1.300563e+002
5.4231875000e+009  4.636045e+000 -1.106693e+002 -3.079109e+001 -1.784159e+002  2.515486e+001  1.139769e+002 -8.437427e+000  1.317465e+002
5.4233125000e+009  4.630659e+000 -1.111753e+002 -3.016153e+001 -1.791155e+002  2.508467e+001  1.125823e+002 -8.521624e+000  1.299171e+002
5.4234375000e+009  4.595206e+000 -1.106842e+002 -2.996615e+001  1.787153e+002  2.510809e+001  1.129579e+002 -8.427946e+000  1.306886e+002
5.4235625000e+009  4.537713e+000 -1.113663e+002 -2.975338e+001  1.797709e+002  2.519096e+001  1.132251e+002 -8.336315e+000  1.312674e+002
5.4236875000e+009  4.507635e+000 -1.110389e+002 -2.940988e+001  1.762639e+002  2.522329e+001  1.117578e+002 -8.265437e+000  1.290534e+002
5.4238125000e+009  4.558160e+000 -1.109061e+002 -2.941441e+001 -1.799893e+002  2.515703e+001  1.122194e+002 -8.323498e+000  1.303021e+002
5.4239375000e+009  4.506668e+000 -1.118869e+002 -2.964585e+001  1.793352e+002  2.524475e+001  1.124976e+002 -8.250609e+000  1.311474e+002
5.4240625000e+009  4.532223e+000 -1.116399e+002 -3.003843e+001  1.772606e+002  2.527436e+001  1.121947e+002 -8.267705e+000  1.307077e+002
5.4241875000e+009  4.438261e+000 -1.115224e+002 -2.995712e+001 -1.797815e+002  2.529036e+001  1.116372e+002 -8.203991e+000  1.305994e+002
5.4243125000e+009  4.422262e+000 -1.120313e+002 -2.944830e+001 -1.793492e+002  2.524278e+001  1.119927e+002 -8.289791e+000  1.314068e+002
5.4244375000e+009  4.451006e+000 -1.123338e+002 -2.979935e+001  1.745130e+002  2.525452e+001  1.101274e+002 -8.322659e+000  1.279898e+002
5.4245625000e+009  4.372241e+000 -1.123092e+002 -2.969829e+001  1.770076e+002  2.526550e+001  1.100615e+002 -8.270384e+000  1.287080e+002
5.4246875000e+009  4.363687e+000 -1.126767e+002 -2.988358e+001  1.784827e+002  2.539842e+001  1.118736e+002 -8.037959e+000  1.319064e+002
5.4248125000e+009  4.329316e+000 -1.123469e+002 -3.017596e+001  1.752114e+002  2.533826e+001  1.102228e+002 -8.206183e+000  1.293365e+002
5.4249375000e+009  4.326490e+000 -1.128425e+002 -2.978824e+001 -1.799719e+002  2.535350e+001  1.095941e+002 -8.154297e+000  1.289094e+002
5.4250625000e+009  4.319703e+000 -1.132962e+002 -2.949956e+001  1.770507e+002  2.542938e+001  1.104675e+002 -7.997852e+000  1.304822e+002
5.4251875000e+009  4.278891e+000 -1.136238e+002 -3.048706e+001  1.750480e+002  2.545508e+001  1.103567e+002 -8.036274e+000  1.306371e+002
5.4253125000e+009  4.207051e+000 -1.133399e+002 -2.965520e+001  1.770002e+002  2.543793e+001  1.099295e+002 -7.986285e+000  1.305827e+002
5.4254375000e+009  4.183889e+000 -1.139323e+002 -3.044015e+001  1.752397e+002  2.553677e+001  1.099818e+002 -7.951674e+000  1.309543e+002
5.4255625000e+009  4.163477e+000 -1.139259e+002 -3.015688e+001  1.738028e+002  2.550765e+001  1.099711e+002 -8.023402e+000  1.310650e+002
5.4256875000e+009  4.149213e+000 -1.138514e+002 -2.976286e+001  1.726045e+002  2.553626e+001  1.092945e+002 -7.950884e+000  1.300699e+002
5.4258125000e+009  4.082635e+000 -1.145439e+002 -3.055230e+001  1.777235e+002  2.562144e+001  1.092393e+002 -7.928917e+000  1.308760e+002
5.4259375000e+009  3.987829e+000 -1.146953e+002 -2.968599e+001  1.764729e+002  2.557796e+001  1.082141e+002 -7.994663e+000  1.299964e+002
5.4260625000e+009  3.954767e+000 -1.146558e+002 -3.019958e+001  1.738207e+002  2.561214e+001  1.079098e+002 -8.037745e+000  1.295618e+002
5.4261875000e+009  3.975572e+000 -1.152207e+002 -3.035883e+001  1.738510e+002  2.565037e+001  1.084956e+002 -7.988254e+000  1.309737e+002
5.4263125000e+009  3.806071e+000 -1.150052e+002 -3.024937e+001  1.737452e+002  2.561718e+001  1.080462e+002 -8.014007e+000  1.306896e+002
5.4264375000e+009  3.825962e+000 -1.152575e+002 -3.049746e+001  1.739862e+002  2.573973e+001  1.070738e+002 -7.986394e+000  1.290750e+002
5.4265625000e+009  3.777291e+000 -1.154534e+002 -2.977678e+001  1.743178e+002  2.568793e+001  1.082115e+002 -7.949221e+000  1.319340e+002
5.4266875000e+009  3.742556e+000 -1.159781e+002 -3.078932e+001  1.729111e+002  2.573242e+001  1.072300e+002 -8.059326e+000  1.308554e+002
5.4268125000e+009  3.687925e+000 -1.161479e+002 -3.116401e+001  1.746468e+002  2.574143e+001  1.069064e+002 -8.107461e+000  1.308254e+002
5.4269375000e+009  3.673023e+000 -1.160914e+002 -3.103011e+001  1.761939e+002  2.581010e+001  1.071913e+002 -8.002943e+000  1.319393e+002
5.4270625000e+009  3.600019e+000 -1.161906e+002 -3.031824e+001  1.742254e+002  2.585065e+001  1.061901e+002 -7.955110e+000  1.302004e+002
5.4271875000e+009  3.614779e+000 -1.161965e+002 -3.044693e+001  1.718701e+002  2.582551e+001  1.063637e+002 -7.990177e+000  1.309971e+002
5.4273125000e+009  3.498607e+000 -1.171030e+002 -3.065298e+001  1.753797e+002  2.584712e+001  1.062551e+002 -8.031332e+000  1.317560e+002
5.4274375000e+009  3.499379e+000 -1.171798e+002 -3.046360e+001  1.721549e+002  2.592641e+001  1.057927e+002 -7.969061e+000  1.301988e+002
5.4275625000e+009  3.500396e+000 -1.176905e+002 -3.061080e+001  1.711945e+002  2.592571e+001  1.056760e+002 -8.014515e+000  1.314932e+002
5.4276875000e+009  3.410689e+000 -1.174196e+002 -3.082603e+001  1.726938e+002  2.593358e+001  1.052414e+002 -7.977357e+000  1.310009e+002
5.4278125000e+009  3.415545e+000 -1.174626e+002 -3.136939e+001  1.711970e+002  2.595722e+001  1.054218e+002 -8.028358e+000  1.322406e+002
5.4279375000e+009  3.310558e+000 -1.178833e+002 -3.072024e+001  1.716949e+002  2.597446e+001  1.044679e+002 -7.997994e+000  1.304204e+002
5.4280625000e+009  3.242184e+000 -1.183755e+002 -3.094809e+001  1.728459e+002  2.599158e+001  1.042016e+002 -8.033235e+000  1.310193e+002
5.4281875000e+009  3.075747e+000 -1.181909e+002 -3.079155e+001  1.701519e+002  2.602600e+001  1.040360e+002 -7.989476e+000  1.312945e+002
5.4283125000e+009  3.202373e+000 -1.191028e+002 -3.066373e+001  1.746873e+002  2.609484e+001  1.032082e+002 -7.962831e+000  1.297650e+002
5.4284375000e+009  3.197996e+000 -1.191124e+002 -3.081690e+001  1.710642e+002  2.608751e+001  1.034616e+002 -7.999624e+000  1.306619e+002
5.4285625000e+009  3.029746e+000 -1.185719e+002 -3.091804e+001  1.723307e+002  2.612465e+001  1.030794e+002 -7.943499e+000  1.300748e+002
5.4286875000e+009  3.175586e+000 -1.197461e+002 -3.075377e+001  1.712075e+002  2.612976e+001  1.027896e+002 -7.997911e+000  1.306263e+002
5.4288125000e+009  3.014702e+000 -1.194907e+002 -3.096354e+001  1.695153e+002  2.612991e+001  1.027929e+002 -8.060268e+000  1.317276e+002
5.4289375000e+009  2.895254e+000 -1.197682e+002 -3.054878e+001  1.719740e+002  2.612309e+001  1.026533e+002 -7.979129e+000  1.320711e+002
5.4290625000e+009  2.920733e+000 -1.201561e+002 -3.081563e+001  1.749934e+002  2.618999e+001  1.017503e+002 -8.040855e+000  1.310129e+002
5.4291875000e+009  2.849493e+000 -1.203455e+002 -3.094233e+001  1.749654e+002  2.616882e+001  1.019850e+002 -8.014217e+000  1.311886e+002
5.4293125000e+009  2.927583e+000 -1.200788e+002 -3.078835e+001  1.722996e+002  2.618165e+001  1.018924e+002 -8.010692e+000  1.322464e+002
5.4294375000e+009  2.913118e+000 -1.201957e+002 -3.115049e+001  1.719893e+002  2.623983e+001  1.014355e+002 -8.070699e+000  1.311648e+002
5.4295625000e+009  2.861040e+000 -1.206097e+002 -3.136471e+001  1.691433e+002  2.629011e+001  1.011787e+002 -8.020676e+000  1.314770e+002
5.4296875000e+009  2.750894e+000 -1.209155e+002 -3.131890e+001  1.685100e+002  2.627871e+001  1.004629e+002 -8.132072e+000  1.309728e+002
5.4298125000e+009  2.714162e+000 -1.213468e+002 -3.146779e+001  1.718614e+002  2.634230e+001  1.002258e+002 -8.031488e+000  1.306575e+002
5.4299375000e+009  2.838117e+000 -1.213038e+002 -3.088406e+001  1.707781e+002  2.626930e+001  1.006875e+002 -8.123647e+000  1.321940e+002
5.4300625000e+009  2.539780e+000 -1.213918e+002 -3.118663e+001  1.699765e+002  2.634525e+001  9.981319e+001 -8.058031e+000  1.318424e+002
5.4301875000e+009  2.630165e+000 -1.220893e+002 -3.117803e+001  1.693700e+002  2.634023e+001  9.949529e+001 -8.067750e+000  1.312115e+002
5.4303125000e+009  2.587442e+000 -1.213841e+002 -3.089219e+001  1.696479e+002  2.630716e+001  9.956778e+001 -8.116310e+000  1.333454e+002
5.4304375000e+009  2.477565e+000 -1.220856e+002 -3.087647e+001  1.673692e+002  2.636218e+001  9.905049e+001 -8.128906e+000  1.320416e+002
5.4305625000e+009  2.539544e+000 -1.227900e+002 -3.165373e+001  1.664132e+002  2.641327e+001  9.871647e+001 -8.106126e+000  1.310838e+002
5.4306875000e+009  2.295855e+000 -1.227149e+002 -3.138870e+001  1.679885e+002  2.637839e+001  9.882473e+001 -8.223998e+000  1.329837e+002
5.4308125000e+009  2.401676e+000 -1.226472e+002 -3.215238e+001  1.636054e+002  2.641925e+001  9.794040e+001 -8.205907e+000  1.325390e+002
5.4309375000e+009  2.345474e+000 -1.230783e+002 -3.155160e+001  1.688010e+002  2.651274e+001  9.768212e+001 -8.096754e+000  1.315084e+002
5.4310625000e+009  2.251373e+000 -1.238487e+002 -3.168149e+001  1.699285e+002  2.639650e+001  9.761650e+001 -8.158858e+000  1.323029e+002
5.4311875000e+009  2.156501e+000 -1.230595e+002 -3.153328e+001  1.688850e+002  2.650956e+001  9.747491e+001 -8.119632e+000  1.315510e+002
5.4313125000e+009  2.201562e+000 -1.236830e+002 -3.157133e+001  1.661991e+002  2.643568e+001  9.695653e+001 -8.197999e+000  1.316682e+002
5.4314375000e+009  2.156213e+000 -1.234475e+002 -3.153204e+001  1.700143e+002  2.644662e+001  9.697248e+001 -8.174664e+000  1.327364e+002
5.4315625000e+009  2.108063e+000 -1.240758e+002 -3.125545e+001  1.703387e+002  2.650109e+001  9.671164e+001 -8.179160e+000  1.325508e+002
5.4316875000e+009  2.110550e+000 -1.248963e+002 -3.146367e+001  1.695328e+002  2.655604e+001  9.581696e+001 -8.092813e+000  1.317891e+002
5.4318125000e+009  2.124731e+000 -1.244958e+002 -3.182031e+001  1.650079e+002  2.660923e+001  9.575650e+001 -8.229431e+000  1.330019e+002
5.4319375000e+009  2.008508e+000 -1.242514e+002 -3.119054e+001  1.697151e+002  2.654735e+001  9.548347e+001 -8.129107e+000  1.326197e+002
5.4320625000e+009  2.109469e+000 -1.248643e+002 -3.159418e+001  1.687405e+002  2.661004e+001  9.497290e+001 -8.172380e+000  1.325967e+002
5.4321875000e+009  2.027114e+000 -1.250146e+002 -3.154429e+001  1.667570e+002  2.653818e+001  9.516282e+001 -8.131042e+000  1.330252e+002
5.4323125000e+009  1.848004e+000 -1.254103e+002 -3.193159e+001  1.668952e+002  2.657019e+001  9.416633e+001 -8.239420e+000  1.327289e+002
5.4324375000e+009  1.942037e+000 -1.258752e+002 -3.163011e+001  1.687814e+002  2.660695e+001  9.430289e+001 -8.161572e+000  1.325521e+002
5.4325625000e+009  1.897416e+000 -1.252888e+002 -3.129402e+001  1.685161e+002  2.658937e+001  9.420719e+001 -8.184174e+000  1.328740e+002
5.4326875000e+009  1.821405e+000 -1.256961e+002 -3.137585e+001  1.667589e+002  2.667507e+001  9.353168e+001 -8.246908e+000  1.325379e+002
5.4328125000e+009  1.939439e+000 -1.259364e+002 -3.160742e+001  1.676769e+002  2.655555e+001  9.248561e+001 -8.294662e+000  1.324916e+002
5.4329375000e+009  1.716348e+000 -1.264404e+002 -3.182311e+001  1.664030e+002  2.659939e+001  9.295399e+001 -8.295117e+000  1.330488e+002
5.4330625000e+009  1.623773e+000 -1.266409e+002 -3.171147e+001  1.671639e+002  2.661209e+001  9.306492e+001 -8.256685e+000  1.332305e+002
5.4331875000e+009  1.684652e+000 -1.269383e+002 -3.244726e+001  1.678197e+002  2.658549e+001  9.226996e+001 -8.324862e+000  1.335189e+002
5.4333125000e+009  1.653599e+000 -1.268472e+002 -3.214176e+001  1.683020e+002  2.672326e+001  9.183236e+001 -8.246748e+000  1.332523e+002
5.4334375000e+009  1.554095e+000 -1.272482e+002 -3.160421e+001  1.691089e+002  2.665857e+001  9.199624e+001 -8.227964e+000  1.329955e+002
5.4335625000e+009  1.592314e+000 -1.266737e+002 -3.164563e+001  1.684324e+002  2.664636e+001  9.217062e+001 -8.234550e+000  1.335828e+002
5.4336875000e+009  1.549643e+000 -1.270208e+002 -3.190924e+001  1.673921e+002  2.667299e+001  9.099979e+001 -8.272508e+000  1.330773e+002
5.4338125000e+009  1.480597e+000 -1.272845e+002 -3.111448e+001  1.652805e+002  2.663533e+001  9.119563e+001 -8.376860e+000  1.332783e+002
5.4339375000e+009  1.492048e+000 -1.278287e+002 -3.156543e+001  1.645127e+002  2.671490e+001  9.046426e+001 -8.250040e+000  1.331859e+002
5.4340625000e+009  1.456281e+000 -1.280829e+002 -3.231700e+001  1.647957e+002  2.674110e+001  9.026183e+001 -8.271953e+000  1.339271e+002
5.4341875000e+009  1.350090e+000 -1.282450e+002 -3.194715e+001  1.662463e+002  2.669570e+001  9.077291e+001 -8.282104e+000  1.348418e+002
5.4343125000e+009  1.367083e+000 -1.282529e+002 -3.244849e+001  1.657044e+002  2.674575e+001  8.996797e+001 -8.210251e+000  1.345439e+002
5.4344375000e+009  1.362913e+000 -1.287512e+002 -3.273102e+001  1.671327e+002  2.674608e+001  9.021806e+001 -8.261301e+000  1.343505e+002
5.4345625000e+009  1.262325e+000 -1.289615e+002 -3.224318e+001  1.656770e+002  2.675420e+001  8.962805e+001 -8.315843e+000  1.342883e+002
5.4346875000e+009  1.245900e+000 -1.286789e+002 -3.188169e+001  1.674157e+002  2.675016e+001  8.857708e+001 -8.288295e+000  1.330058e+002
5.4348125000e+009  1.207574e+000 -1.288238e+002 -3.130157e+001  1.622256e+002  2.686587e+001  8.861130e+001 -8.327274e+000  1.334686e+002
5.4349375000e+009  1.109217e+000 -1.292516e+002 -3.209136e+001  1.640592e+002  2.686935e+001  8.848843e+001 -8.210530e+000  1.339547e+002
5.4350625000e+009  1.224840e+000 -1.292803e+002 -3.208197e+001  1.642770e+002  2.658587e+001  8.819041e+001 -8.391352e+000  1.345028e+002
5.4351875000e+009  1.074185e+000 -1.296763e+002 -3.244895e+001  1.660122e+002  2.670201e+001  8.795668e+001 -8.303510e+000  1.344040e+002
5.4353125000e+009  1.011245e+000 -1.300457e+002 -3.245073e+001  1.649370e+002  2.682873e+001  8.775278e+001 -8.222068e+000  1.346821e+002
5.4354375000e+009  1.066247e+000 -1.295867e+002 -3.171699e+001  1.659166e+002  2.664932e+001  8.705719e+001 -8.363218e+000  1.341641e+002
5.4355625000e+009  1.012809e+000 -1.298510e+002 -3.193071e+001  1.622553e+002  2.684339e+001  8.711458e+001 -8.267990e+000  1.349103e+002
5.4356875000e+009  8.771108e-001 -1.306669e+002 -3.284213e+001  1.639997e+002  2.681708e+001  8.636070e+001 -8.230060e+000  1.343181e+002
5.4358125000e+009  8.993729e-001 -1.302294e+002 -3.172375e+001  1.666352e+002  2.683717e+001  8.591393e+001 -8.352803e+000  1.336989e+002
5.4359375000e+009  8.646262e-001 -1.305263e+002 -3.164044e+001  1.641274e+002  2.678615e+001  8.609807e+001 -8.322567e+000  1.345344e+002
5.4360625000e+009  7.838640e-001 -1.311459e+002 -3.252190e+001  1.649560e+002  2.678711e+001  8.502859e+001 -8.324791e+000  1.339621e+002
5.4361875000e+009  7.879894e-001 -1.310213e+002 -3.212554e+001  1.650348e+002  2.667507e+001  8.444497e+001 -8.525552e+000  1.338147e+002
5.4363125000e+009  7.555845e-001 -1.313328e+002 -3.208615e+001  1.644918e+002  2.691842e+001  8.439944e+001 -8.214028e+000  1.333736e+002
5.4364375000e+009  7.070146e-001 -1.316071e+002 -3.259388e+001  1.659978e+002  2.695099e+001  8.483492e+001 -8.181002e+000  1.345052e+002
5.4365625000e+009  6.780566e-001 -1.312153e+002 -3.205126e+001  1.668484e+002  2.681254e+001  8.447749e+001 -8.280430e+000  1.345520e+002
5.4366875000e+009  7.143474e-001 -1.316926e+002 -3.187024e+001  1.620658e+002  2.701342e+001  8.420381e+001 -8.136591e+000  1.340832e+002
5.4368125000e+009  6.064477e-001 -1.320536e+002 -3.297234e+001  1.640326e+002  2.702767e+001  8.434624e+001 -8.015697e+000  1.347670e+002
5.4369375000e+009  6.017171e-001 -1.314794e+002 -3.167891e+001  1.651878e+002  2.685255e+001  8.394662e+001 -8.245296e+000  1.350355e+002
5.4370625000e+009  5.485342e-001 -1.320760e+002 -3.257789e+001  1.652531e+002  2.692523e+001  8.425626e+001 -8.009583e+000  1.356816e+002
5.4371875000e+009  5.003657e-001 -1.324237e+002 -3.275348e+001  1.658394e+002  2.689285e+001  8.285257e+001 -8.190436e+000  1.347343e+002
5.4373125000e+009  4.980514e-001 -1.322915e+002 -3.206350e+001  1.652847e+002  2.687158e+001  8.190064e+001 -8.297444e+000  1.337389e+002
5.4374375000e+009  4.698101e-001 -1.324144e+002 -3.228080e+001  1.627263e+002  2.691827e+001  8.217838e+001 -8.187894e+000  1.341740e+002
5.4375625000e+009  4.297460e-001 -1.325536e+002 -3.200142e+001  1.613026e+002  2.698567e+001  8.244796e+001 -8.074490e+000  1.351998e+002
5.4376875000e+009  3.805792e-001 -1.332089e+002 -3.250846e+001  1.616392e+002  2.688400e+001  8.170861e+001 -8.202872e+000  1.351415e+002
5.4378125000e+009  3.476420e-001 -1.329680e+002 -3.212323e+001  1.632614e+002  2.694685e+001  8.190658e+001 -8.166948e+000  1.351712e+002
5.4379375000e+009  3.185579e-001 -1.337295e+002 -3.276506e+001  1.630419e+002  2.693969e+001  8.115234e+001 -8.104158e+000  1.345450e+002
5.4380625000e+009  3.576731e-001 -1.341025e+002 -3.273988e+001  1.609140e+002  2.686352e+001  7.972307e+001 -8.375616e+000  1.337592e+002
5.4381875000e+009  2.916608e-001 -1.343375e+002 -3.316729e+001  1.619791e+002  2.692004e+001  8.018224e+001 -8.269700e+000  1.344497e+002
5.4383125000e+009  2.734706e-001 -1.346722e+002 -3.311467e+001  1.559562e+002  2.695492e+001  8.099247e+001 -8.061255e+000  1.362843e+002
5.4384375000e+009  3.117760e-001 -1.345864e+002 -3.215308e+001  1.589359e+002  2.682514e+001  8.008610e+001 -8.375812e+000  1.350539e+002
5.4385625000e+009  2.336508e-001 -1.348470e+002 -3.270021e+001  1.614897e+002  2.685228e+001  7.891061e+001 -8.422226e+000  1.340794e+002
5.4386875000e+009  2.025149e-001 -1.351853e+002 -3.260689e+001  1.600699e+002  2.702145e+001  7.935117e+001 -8.106446e+000  1.339863e+002
5.4388125000e+009  2.355244e-001 -1.357886e+002 -3.251875e+001  1.585421e+002  2.690925e+001  7.873188e+001 -8.273811e+000  1.344408e+002
5.4389375000e+009  1.862438e-001 -1.359952e+002 -3.285014e+001  1.601544e+002  2.683049e+001  7.806895e+001 -8.490695e+000  1.339603e+002
5.4390625000e+009  1.123258e-001 -1.359243e+002 -3.267452e+001  1.618351e+002  2.685793e+001  7.938941e+001 -8.252009e+000  1.363742e+002
5.4391875000e+009  1.615882e-001 -1.362715e+002 -3.303965e+001  1.587241e+002  2.688743e+001  7.756912e+001 -8.363590e+000  1.342270e+002
5.4393125000e+009  1.200243e-001 -1.364729e+002 -3.236767e+001  1.583998e+002  2.679659e+001  7.732932e+001 -8.488068e+000  1.342966e+002
5.4394375000e+009  5.210898e-002 -1.368793e+002 -3.286337e+001  1.630736e+002  2.696116e+001  7.833585e+001 -8.188113e+000  1.352125e+002
5.4395625000e+009  1.060394e-001 -1.371405e+002 -3.298499e+001  1.590986e+002  2.688531e+001  7.724311e+001 -8.298381e+000  1.347828e+002
5.4396875000e+009  5.798870e-002 -1.373891e+002 -3.330667e+001  1.614552e+002  2.694742e+001  7.741861e+001 -8.197085e+000  1.346588e+002
5.4398125000e+009 -6.270752e-003 -1.369543e+002 -3.298184e+001  1.627630e+002  2.693333e+001  7.707135e+001 -8.206199e+000  1.345880e+002
5.4399375000e+009  4.435840e-002 -1.379414e+002 -3.260265e+001  1.619790e+002  2.680819e+001  7.566494e+001 -8.526129e+000  1.337945e+002
5.4400625000e+009  5.294821e-003 -1.379244e+002 -3.224998e+001  1.580333e+002  2.688683e+001  7.648377e+001 -8.390101e+000  1.352832e+002
5.4401875000e+009 -9.216195e-002 -1.381684e+002 -3.302546e+001  1.591633e+002  2.686884e+001  7.579993e+001 -8.403212e+000  1.343357e+002
5.4403125000e+009 -2.182680e-002 -1.388639e+002 -3.287712e+001  1.583900e+002  2.675204e+001  7.423258e+001 -8.726710e+000  1.330598e+002
5.4404375000e+009 -8.792017e-002 -1.387377e+002 -3.244410e+001  1.566778e+002  2.671768e+001  7.338897e+001 -8.925229e+000  1.320885e+002
5.4405625000e+009 -7.694259e-002 -1.389395e+002 -3.216685e+001  1.593674e+002  2.683735e+001  7.474818e+001 -8.449191e+000  1.340538e+002
5.4406875000e+009 -1.396128e-001 -1.396619e+002 -3.249089e+001  1.561290e+002  2.673147e+001  7.318228e+001 -8.811960e+000  1.329477e+002
5.4408125000e+009 -1.476211e-001 -1.396910e+002 -3.250041e+001  1.608960e+002  2.689667e+001  7.398647e+001 -8.363340e+000  1.331193e+002
5.4409375000e+009 -1.533200e-001 -1.398192e+002 -3.273732e+001  1.542105e+002  2.689082e+001  7.391766e+001 -8.382372e+000  1.339172e+002
5.4410625000e+009 -1.270356e-001 -1.404666e+002 -3.218258e+001  1.570660e+002  2.668628e+001  7.211420e+001 -8.911726e+000  1.321642e+002
5.4411875000e+009 -1.683490e-001 -1.405997e+002 -3.239350e+001  1.549863e+002  2.679665e+001  7.351311e+001 -8.458591e+000  1.347715e+002
5.4413125000e+009 -2.440507e-001 -1.407165e+002 -3.220256e+001  1.576522e+002  2.670350e+001  7.312185e+001 -8.829182e+000  1.350254e+002
5.4414375000e+009 -2.536985e-001 -1.409496e+002 -3.352442e+001  1.595204e+002  2.676622e+001  7.146725e+001 -8.627538e+000  1.313850e+002
5.4415625000e+009 -2.671875e-001 -1.410236e+002 -3.276643e+001  1.556321e+002  2.672077e+001  7.139948e+001 -8.823244e+000  1.324120e+002
5.4416875000e+009 -2.910576e-001 -1.414057e+002 -3.235939e+001  1.556831e+002  2.677515e+001  7.202036e+001 -8.575428e+000  1.333369e+002
5.4418125000e+009 -2.728407e-001 -1.417804e+002 -3.243646e+001  1.579586e+002  2.678589e+001  6.989298e+001 -8.756577e+000  1.299334e+002
5.4419375000e+009 -3.009222e-001 -1.416965e+002 -3.260796e+001  1.547491e+002  2.668727e+001  7.060496e+001 -8.861160e+000  1.326574e+002
5.4420625000e+009 -4.109843e-001 -1.419057e+002 -3.322810e+001  1.545729e+002  2.668676e+001  6.993841e+001 -8.867022e+000  1.324307e+002
5.4421875000e+009 -3.061069e-001 -1.425607e+002 -3.235384e+001  1.561069e+002  2.663430e+001  6.949301e+001 -9.053724e+000  1.314143e+002
5.4423125000e+009 -3.722854e-001 -1.427286e+002 -3.187712e+001  1.549625e+002  2.672034e+001  6.941340e+001 -8.749094e+000  1.317667e+002
5.4424375000e+009 -4.102595e-001 -1.434819e+002 -3.278588e+001  1.544394e+002  2.673695e+001  7.000699e+001 -8.609818e+000  1.330835e+002
5.4425625000e+009 -4.005414e-001 -1.434846e+002 -3.296311e+001  1.540578e+002  2.669522e+001  6.766989e+001 -9.005910e+000  1.286044e+002
5.4426875000e+009 -4.667327e-001 -1.429584e+002 -3.249038e+001  1.575516e+002  2.669302e+001  6.832929e+001 -8.925493e+000  1.304103e+002
5.4428125000e+009 -4.373974e-001 -1.434533e+002 -3.264152e+001  1.615588e+002  2.669551e+001  6.867659e+001 -8.735913e+000  1.314967e+002
5.4429375000e+009 -5.154070e-001 -1.437941e+002 -3.272526e+001  1.579358e+002  2.668617e+001  6.632258e+001 -9.042420e+000  1.264982e+002
5.4430625000e+009 -4.378125e-001 -1.444120e+002 -3.263205e+001  1.539530e+002  2.667600e+001  6.663587e+001 -8.936237e+000  1.281728e+002
5.4431875000e+009 -5.200087e-001 -1.444511e+002 -3.249806e+001  1.495140e+002  2.663676e+001  6.777559e+001 -8.856293e+000  1.327748e+002
5.4433125000e+009 -5.663731e-001 -1.446422e+002 -3.287578e+001  1.558266e+002  2.661111e+001  6.703845e+001 -8.862352e+000  1.316844e+002
5.4434375000e+009 -4.189064e-001 -1.454721e+002 -3.260663e+001  1.547200e+002  2.666172e+001  6.559550e+001 -8.956578e+000  1.276489e+002
5.4435625000e+009 -5.791141e-001 -1.451874e+002 -3.230932e+001  1.523856e+002  2.663907e+001  6.648267e+001 -8.836963e+000  1.312606e+002
5.4436875000e+009 -5.502642e-001 -1.454471e+002 -3.257183e+001  1.543608e+002  2.655947e+001  6.559123e+001 -9.029213e+000  1.303844e+002
5.4438125000e+009 -6.115295e-001 -1.456528e+002 -3.252325e+001  1.538158e+002  2.667775e+001  6.505267e+001 -8.850556e+000  1.279911e+002
5.4439375000e+009 -7.454676e-001 -1.457414e+002 -3.355938e+001  1.530322e+002  2.660434e+001  6.592837e+001 -8.687688e+000  1.320062e+002
5.4440625000e+009 -6.762922e-001 -1.466530e+002 -3.346587e+001  1.517618e+002  2.660126e+001  6.344505e+001 -9.052401e+000  1.242657e+002
5.4441875000e+009 -7.339380e-001 -1.464930e+002 -3.344425e+001  1.544781e+002  2.661430e+001  6.383056e+001 -8.802068e+000  1.269221e+002
5.4443125000e+009 -7.395112e-001 -1.464758e+002 -3.281862e+001  1.487701e+002  2.656743e+001  6.470152e+001 -8.870037e+000  1.309066e+002
5.4444375000e+009 -7.455021e-001 -1.465631e+002 -3.283118e+001  1.518136e+002  2.653190e+001  6.315987e+001 -8.965657e+000  1.274777e+002
5.4445625000e+009 -7.062653e-001 -1.473560e+002 -3.275233e+001  1.539644e+002  2.658700e+001  6.276183e+001 -9.042191e+000  1.259807e+002
5.4446875000e+009 -8.212571e-001 -1.470886e+002 -3.270157e+001  1.501057e+002  2.656517e+001  6.235462e+001 -8.981653e+000  1.255828e+002
5.4448125000e+009 -8.463708e-001 -1.476773e+002 -3.258558e+001  1.519739e+002  2.650410e+001  6.234266e+001 -9.295633e+000  1.264498e+002
5.4449375000e+009 -8.181059e-001 -1.477545e+002 -3.282831e+001  1.504635e+002  2.654134e+001  6.163322e+001 -8.977740e+000  1.243308e+002
5.4450625000e+009 -8.563495e-001 -1.481953e+002 -3.302464e+001  1.529604e+002  2.650781e+001  6.156745e+001 -9.029293e+000  1.252220e+002
5.4451875000e+009 -7.708748e-001 -1.484084e+002 -3.263325e+001  1.462850e+002  2.653706e+001  6.049817e+001 -9.078437e+000  1.235953e+002
5.4453125000e+009 -7.993330e-001 -1.487144e+002 -3.261338e+001  1.537142e+002  2.647836e+001  6.128715e+001 -8.998739e+000  1.261323e+002
5.4454375000e+009 -8.791389e-001 -1.485656e+002 -3.232740e+001  1.538719e+002  2.650819e+001  6.032884e+001 -8.939378e+000  1.238284e+002
5.4455625000e+009 -8.339242e-001 -1.492252e+002 -3.289587e+001  1.477752e+002  2.648766e+001  6.006165e+001 -8.927013e+000  1.242018e+002
5.4456875000e+009 -8.550680e-001 -1.492144e+002 -3.243521e+001  1.492141e+002  2.650397e+001  5.959814e+001 -9.065519e+000  1.241474e+002
5.4458125000e+009 -9.644637e-001 -1.495474e+002 -3.235042e+001  1.494869e+002  2.648539e+001  5.965364e+001 -9.056213e+000  1.247199e+002
5.4459375000e+009 -8.321123e-001 -1.500162e+002 -3.126447e+001  1.473781e+002  2.640314e+001  5.890911e+001 -9.403277e+000  1.241998e+002
5.4460625000e+009 -1.019106e+000 -1.499108e+002 -3.284141e+001  1.497341e+002  2.642164e+001  5.852324e+001 -9.148770e+000  1.217436e+002
5.4461875000e+009 -1.053928e+000 -1.502274e+002 -3.321138e+001  1.466325e+002  2.640754e+001  5.862645e+001 -9.083257e+000  1.227596e+002
5.4463125000e+009 -9.923949e-001 -1.503900e+002 -3.265758e+001  1.497460e+002  2.639170e+001  5.776464e+001 -9.027722e+000  1.221226e+002
5.4464375000e+009 -9.340873e-001 -1.506003e+002 -3.250942e+001  1.489482e+002  2.640918e+001  5.762190e+001 -9.100738e+000  1.212114e+002
5.4465625000e+009 -1.031172e+000 -1.510055e+002 -3.205919e+001  1.489143e+002  2.633920e+001  5.753120e+001 -9.159710e+000  1.233020e+002
5.4466875000e+009 -9.474463e-001 -1.506731e+002 -3.236171e+001  1.522958e+002  2.637054e+001  5.662670e+001 -9.209487e+000  1.196796e+002
5.4468125000e+009 -9.704129e-001 -1.509842e+002 -3.316631e+001  1.493544e+002  2.636545e+001  5.632078e+001 -9.016367e+000  1.197160e+002
5.4469375000e+009 -1.048771e+000 -1.513216e+002 -3.262127e+001  1.500777e+002  2.636798e+001  5.611513e+001 -9.144908e+000  1.208708e+002
5.4470625000e+009 -1.196529e+000 -1.516170e+002 -3.295416e+001  1.488551e+002  2.636435e+001  5.557014e+001 -9.011572e+000  1.190415e+002
5.4471875000e+009 -1.016174e+000 -1.516953e+002 -3.224780e+001  1.503566e+002  2.632392e+001  5.528230e+001 -9.178083e+000  1.202063e+002
5.4473125000e+009 -1.083221e+000 -1.522322e+002 -3.218638e+001  1.498236e+002  2.631017e+001  5.532488e+001 -9.380872e+000  1.200720e+002
5.4474375000e+009 -1.141896e+000 -1.519471e+002 -3.319807e+001  1.490711e+002  2.630697e+001  5.448925e+001 -9.010628e+000  1.179183e+002
5.4475625000e+009 -1.024680e+000 -1.520677e+002 -3.276022e+001  1.447639e+002  2.632876e+001  5.385827e+001 -8.944836e+000  1.166309e+002
5.4476875000e+009 -1.251798e+000 -1.532099e+002 -3.223589e+001  1.443622e+002  2.630870e+001  5.434626e+001 -9.198588e+000  1.196920e+002
5.4478125000e+009 -1.130849e+000 -1.533317e+002 -3.246915e+001  1.414938e+002  2.625760e+001  5.347896e+001 -8.991237e+000  1.174493e+002
5.4479375000e+009 -1.091082e+000 -1.529229e+002 -3.286425e+001  1.513469e+002  2.624989e+001  5.299791e+001 -9.073407e+000  1.168473e+002
5.4480625000e+009 -1.176733e+000 -1.530610e+002 -3.238770e+001  1.502102e+002  2.625844e+001  5.305188e+001 -9.352527e+000  1.174946e+002
5.4481875000e+009 -1.218860e+000 -1.541450e+002 -3.231045e+001  1.441040e+002  2.625043e+001  5.244205e+001 -9.003569e+000  1.161735e+002
5.4483125000e+009 -1.235465e+000 -1.543173e+002 -3.264240e+001  1.459272e+002  2.625166e+001  5.171445e+001 -8.798632e+000  1.135418e+002
5.4484375000e+009 -1.288052e+000 -1.544603e+002 -3.215617e+001  1.480194e+002  2.624230e+001  5.184583e+001 -9.110102e+000  1.173292e+002
5.4485625000e+009 -1.381069e+000 -1.545293e+002 -3.329443e+001  1.435123e+002  2.620541e+001  5.127049e+001 -8.919002e+000  1.149774e+002
5.4486875000e+009 -1.159034e+000 -1.544794e+002 -3.230328e+001  1.477889e+002  2.616949e+001  5.068337e+001 -8.970130e+000  1.136357e+002
5.4488125000e+009 -1.355001e+000 -1.549882e+002 -3.278370e+001  1.425122e+002  2.614870e+001  5.064939e+001 -9.060395e+000  1.148000e+002
5.4489375000e+009 -1.310400e+000 -1.554740e+002 -3.224210e+001  1.425872e+002  2.619805e+001  4.973648e+001 -8.864402e+000  1.140816e+002
5.4490625000e+009 -1.282292e+000 -1.552636e+002 -3.219381e+001  1.476559e+002  2.614631e+001  4.956060e+001 -9.034985e+000  1.114552e+002
5.4491875000e+009 -1.424394e+000 -1.559215e+002 -3.279711e+001  1.428898e+002  2.612989e+001  4.941645e+001 -8.794046e+000  1.121327e+002
5.4493125000e+009 -1.321590e+000 -1.558213e+002 -3.245162e+001  1.490088e+002  2.616425e+001  4.899640e+001 -9.035399e+000  1.123185e+002
5.4494375000e+009 -1.368803e+000 -1.560027e+002 -3.260222e+001  1.423339e+002  2.613671e+001  4.827507e+001 -8.755035e+000  1.115268e+002
5.4495625000e+009 -1.362676e+000 -1.563881e+002 -3.235518e+001  1.423152e+002  2.613790e+001  4.868014e+001 -9.056096e+000  1.115578e+002
5.4496875000e+009 -1.384822e+000 -1.567916e+002 -3.221407e+001  1.399854e+002  2.611446e+001  4.761900e+001 -8.816662e+000  1.114185e+002
5.4498125000e+009 -1.355646e+000 -1.569895e+002 -3.255700e+001  1.434126e+002  2.605596e+001  4.710769e+001 -8.700300e+000  1.094133e+002
5.4499375000e+009 -1.410235e+000 -1.571509e+002 -3.219506e+001  1.447706e+002  2.608025e+001  4.746703e+001 -9.243827e+000  1.113206e+002
5.4500625000e+009 -1.487064e+000 -1.575547e+002 -3.285088e+001  1.409704e+002  2.610147e+001  4.686531e+001 -8.856289e+000  1.097556e+002
5.4501875000e+009 -1.434603e+000 -1.572152e+002 -3.322176e+001  1.436967e+002  2.598159e+001  4.636475e+001 -8.832127e+000  1.075140e+002
5.4503125000e+009 -1.437243e+000 -1.580748e+002 -3.208026e+001  1.430192e+002  2.599188e+001  4.604607e+001 -8.973436e+000  1.084071e+002
5.4504375000e+009 -1.482901e+000 -1.581884e+002 -3.275209e+001  1.440463e+002  2.593077e+001  4.504449e+001 -8.699734e+000  1.069667e+002
5.4505625000e+009 -1.432125e+000 -1.581648e+002 -3.229329e+001  1.426733e+002  2.595571e+001  4.484779e+001 -8.788032e+000  1.068737e+002
5.4506875000e+009 -1.449026e+000 -1.586382e+002 -3.188615e+001  1.425546e+002  2.605156e+001  4.485275e+001 -8.993552e+000  1.085862e+002
5.4508125000e+009 -1.561605e+000 -1.583275e+002 -3.322630e+001  1.387872e+002  2.594090e+001  4.424348e+001 -8.537462e+000  1.056148e+002
5.4509375000e+009 -1.456850e+000 -1.586592e+002 -3.200935e+001  1.416772e+002  2.588140e+001  4.364005e+001 -8.664711e+000  1.058453e+002
5.4510625000e+009 -1.519170e+000 -1.590503e+002 -3.229499e+001  1.405051e+002  2.596045e+001  4.402586e+001 -8.981381e+000  1.061993e+002
5.4511875000e+009 -1.544765e+000 -1.591022e+002 -3.266942e+001  1.400767e+002  2.597815e+001  4.374376e+001 -8.838724e+000  1.051041e+002
5.4513125000e+009 -1.461819e+000 -1.589058e+002 -3.221531e+001  1.453471e+002  2.593307e+001  4.239232e+001 -8.780637e+000  1.044296e+002
5.4514375000e+009 -1.523288e+000 -1.591930e+002 -3.213298e+001  1.415201e+002  2.599599e+001  4.277070e+001 -8.953720e+000  1.050180e+002
5.4515625000e+009 -1.544977e+000 -1.593844e+002 -3.207800e+001  1.395843e+002  2.593714e+001  4.206842e+001 -8.752284e+000  1.044373e+002
5.4516875000e+009 -1.469442e+000 -1.597198e+002 -3.162341e+001  1.356628e+002  2.594088e+001  4.190213e+001 -8.614785e+000  1.038206e+002
5.4518125000e+009 -1.534056e+000 -1.599230e+002 -3.186532e+001  1.396396e+002  2.592158e+001  4.135339e+001 -8.781011e+000  1.035456e+002
5.4519375000e+009 -1.615462e+000 -1.599042e+002 -3.220581e+001  1.371165e+002  2.595021e+001  4.125481e+001 -8.673817e+000  1.022253e+002
5.4520625000e+009 -1.573492e+000 -1.602343e+002 -3.169734e+001  1.357380e+002  2.588347e+001  4.138965e+001 -8.737372e+000  1.023912e+002
5.4521875000e+009 -1.561195e+000 -1.600261e+002 -3.217013e+001  1.372997e+002  2.585067e+001  4.074615e+001 -8.728075e+000  1.017157e+002
5.4523125000e+009 -1.617135e+000 -1.604300e+002 -3.176453e+001  1.363026e+002  2.579836e+001  3.973275e+001 -8.603497e+000  1.005354e+002
5.4524375000e+009 -1.598131e+000 -1.603664e+002 -3.226383e+001  1.380057e+002  2.580341e+001  3.918705e+001 -8.476916e+000  9.966725e+001
5.4525625000e+009 -1.594439e+000 -1.603432e+002 -3.223229e+001  1.398031e+002  2.582456e+001  3.963361e+001 -8.795310e+000  9.992666e+001
5.4526875000e+009 -1.617345e+000 -1.603893e+002 -3.232502e+001  1.420435e+002  2.590246e+001  3.918626e+001 -8.804383e+000  9.861459e+001
5.4528125000e+009 -1.596303e+000 -1.606800e+002 -3.265088e+001  1.375288e+002  2.579287e+001  3.815224e+001 -8.506950e+000  9.792010e+001
5.4529375000e+009 -1.644153e+000 -1.612394e+002 -3.173937e+001  1.352675e+002  2.584637e+001  3.834428e+001 -8.673193e+000  9.914214e+001
5.4530625000e+009 -1.644688e+000 -1.611904e+002 -3.212191e+001  1.358806e+002  2.571663e+001  3.764163e+001 -8.584131e+000  9.703082e+001
5.4531875000e+009 -1.637685e+000 -1.612457e+002 -3.199228e+001  1.375062e+002  2.567575e+001  3.679182e+001 -8.506636e+000  9.656663e+001
5.4533125000e+009 -1.691172e+000 -1.612482e+002 -3.216714e+001  1.331943e+002  2.572188e+001  3.692930e+001 -8.529363e+000  9.643160e+001
5.4534375000e+009 -1.636845e+000 -1.615521e+002 -3.202777e+001  1.394256e+002  2.579988e+001  3.649605e+001 -8.694230e+000  9.580677e+001
5.4535625000e+009 -1.620333e+000 -1.621026e+002 -3.168107e+001  1.363309e+002  2.564967e+001  3.553862e+001 -8.481736e+000  9.527003e+001
5.4536875000e+009 -1.732650e+000 -1.617412e+002 -3.282515e+001  1.362854e+002  2.576183e+001  3.634807e+001 -8.509254e+000  9.361212e+001
5.4538125000e+009 -1.689013e+000 -1.618499e+002 -3.278546e+001  1.369559e+002  2.574258e+001  3.493166e+001 -8.499029e+000  9.274023e+001
5.4539375000e+009 -1.675885e+000 -1.620014e+002 -3.250494e+001  1.322787e+002  2.565133e+001  3.452707e+001 -8.332908e+000  9.305801e+001
5.4540625000e+009 -1.769555e+000 -1.621478e+002 -3.257392e+001  1.341046e+002  2.570773e+001  3.491223e+001 -8.420498e+000  9.276568e+001
5.4541875000e+009 -1.757032e+000 -1.622986e+002 -3.219656e+001  1.308753e+002  2.566745e+001  3.413004e+001 -8.351801e+000  9.267368e+001
5.4543125000e+009 -1.776865e+000 -1.627715e+002 -3.252655e+001  1.319224e+002  2.556478e+001  3.348621e+001 -8.296028e+000  9.116804e+001
5.4544375000e+009 -1.734351e+000 -1.630449e+002 -3.238970e+001  1.314570e+002  2.564127e+001  3.381122e+001 -8.445344e+000  9.084865e+001
5.4545625000e+009 -1.787029e+000 -1.629850e+002 -3.173211e+001  1.301488e+002  2.554536e+001  3.304631e+001 -8.316964e+000  9.107474e+001
5.4546875000e+009 -1.789013e+000 -1.632900e+002 -3.207807e+001  1.298638e+002  2.559470e+001  3.208568e+001 -8.174321e+000  8.991367e+001
5.4548125000e+009 -1.753435e+000 -1.634005e+002 -3.211501e+001  1.301684e+002  2.562523e+001  3.239507e+001 -8.335366e+000  8.987707e+001
5.4549375000e+009 -1.684408e+000 -1.633727e+002 -3.206252e+001  1.373989e+002  2.556134e+001  3.198166e+001 -8.406837e+000  8.867915e+001
5.4550625000e+009 -1.781870e+000 -1.636483e+002 -3.210704e+001  1.319769e+002  2.550931e+001  3.075158e+001 -8.255601e+000  8.798211e+001
5.4551875000e+009 -1.734529e+000 -1.632256e+002 -3.221666e+001  1.311801e+002  2.552487e+001  3.090513e+001 -8.269855e+000  8.729321e+001
5.4553125000e+009 -1.749141e+000 -1.641550e+002 -3.160011e+001  1.306358e+002  2.548874e+001  3.097413e+001 -8.227502e+000  8.745641e+001
5.4554375000e+009 -1.746964e+000 -1.640089e+002 -3.238192e+001  1.278872e+002  2.551825e+001  2.896192e+001 -8.061852e+000  8.598849e+001
5.4555625000e+009 -1.765105e+000 -1.640558e+002 -3.203346e+001  1.312215e+002  2.551720e+001  2.980624e+001 -8.202779e+000  8.598087e+001
5.4556875000e+009 -1.838326e+000 -1.638719e+002 -3.167281e+001  1.315875e+002  2.550937e+001  3.013365e+001 -8.219659e+000  8.550858e+001
5.4558125000e+009 -1.732159e+000 -1.653200e+002 -3.127834e+001  1.338221e+002  2.544335e+001  2.899220e+001 -8.300484e+000  8.515930e+001
5.4559375000e+009 -1.733840e+000 -1.646868e+002 -3.257273e+001  1.302933e+002  2.540450e+001  2.875782e+001 -8.123680e+000  8.351801e+001
5.4560625000e+009 -1.939727e+000 -1.649312e+002 -3.151564e+001  1.285161e+002  2.541369e+001  2.830338e+001 -8.136745e+000  8.370432e+001
5.4561875000e+009 -1.724431e+000 -1.652884e+002 -3.184048e+001  1.323260e+002  2.540918e+001  2.692547e+001 -8.139857e+000  8.264300e+001
5.4563125000e+009 -1.781393e+000 -1.656985e+002 -3.179443e+001  1.330656e+002  2.536119e+001  2.771253e+001 -8.218865e+000  8.200714e+001
5.4564375000e+009 -1.890303e+000 -1.654655e+002 -3.171534e+001  1.242835e+002  2.536456e+001  2.728115e+001 -7.956274e+000  8.245264e+001
5.4565625000e+009 -1.873389e+000 -1.661174e+002 -3.139265e+001  1.264512e+002  2.537254e+001  2.657646e+001 -7.923389e+000  8.171720e+001
5.4566875000e+009 -1.834572e+000 -1.663152e+002 -3.236139e+001  1.297436e+002  2.530252e+001  2.616370e+001 -8.004206e+000  7.971457e+001
5.4568125000e+009 -1.874342e+000 -1.654025e+002 -3.170157e+001  1.248852e+002  2.527755e+001  2.581054e+001 -7.915682e+000  8.038484e+001
5.4569375000e+009 -1.789838e+000 -1.668575e+002 -3.211632e+001  1.277001e+002  2.530492e+001  2.583510e+001 -7.980212e+000  7.945748e+001
5.4570625000e+009 -1.764896e+000 -1.664472e+002 -3.170881e+001  1.282814e+002  2.525972e+001  2.505556e+001 -7.904895e+000  7.886066e+001
5.4571875000e+009 -1.849616e+000 -1.664823e+002 -3.153839e+001  1.243907e+002  2.520699e+001  2.445798e+001 -7.780560e+000  7.843397e+001
5.4573125000e+009 -1.800257e+000 -1.669865e+002 -3.198310e+001  1.243053e+002  2.522669e+001  2.354270e+001 -7.726440e+000  7.689835e+001
5.4574375000e+009 -1.913604e+000 -1.673597e+002 -3.125245e+001  1.267466e+002  2.515760e+001  2.331330e+001 -7.942563e+000  7.722100e+001
5.4575625000e+009 -1.856759e+000 -1.681342e+002 -3.205697e+001  1.246544e+002  2.511261e+001  2.324884e+001 -7.798310e+000  7.596939e+001
5.4576875000e+009 -1.787839e+000 -1.678030e+002 -3.157118e+001  1.241306e+002  2.512712e+001  2.261154e+001 -7.750428e+000  7.572031e+001
5.4578125000e+009 -1.840813e+000 -1.678586e+002 -3.115650e+001  1.225361e+002  2.509354e+001  2.249309e+001 -7.729249e+000  7.582495e+001
5.4579375000e+009 -1.915960e+000 -1.669651e+002 -3.219625e+001  1.224378e+002  2.512995e+001  2.207535e+001 -7.631983e+000  7.399416e+001
5.4580625000e+009 -1.869742e+000 -1.675197e+002 -3.147626e+001  1.230570e+002  2.503893e+001  2.116696e+001 -7.640824e+000  7.338197e+001
5.4581875000e+009 -1.944542e+000 -1.677763e+002 -3.205931e+001  1.194902e+002  2.509053e+001  2.103836e+001 -7.625907e+000  7.297243e+001
5.4583125000e+009 -2.023538e+000 -1.677875e+002 -3.217306e+001  1.237346e+002  2.498475e+001  2.065086e+001 -7.642812e+000  7.231166e+001
5.4584375000e+009 -1.926737e+000 -1.690680e+002 -3.174969e+001  1.244094e+002  2.501505e+001  1.977520e+001 -7.616911e+000  7.110175e+001
5.4585625000e+009 -2.013012e+000 -1.681799e+002 -3.161923e+001  1.195240e+002  2.503751e+001  1.950258e+001 -7.500822e+000  7.127599e+001
5.4586875000e+009 -2.097897e+000 -1.677939e+002 -3.201034e+001  1.184178e+002  2.501281e+001  1.886417e+001 -7.351791e+000  6.995419e+001
5.4588125000e+009 -1.891427e+000 -1.693363e+002 -3.175187e+001  1.220746e+002  2.492232e+001  1.881681e+001 -7.603321e+000  6.975163e+001
5.4589375000e+009 -1.608368e+000 -1.689675e+002 -3.165342e+001  1.194692e+002  2.483871e+001  1.831864e+001 -7.446060e+000  6.968626e+001
5.4590625000e+009 -2.052283e+000 -1.701414e+002 -3.182943e+001  1.219946e+002  2.490110e+001  1.785915e+001 -7.515999e+000  6.809051e+001
5.4591875000e+009 -1.944317e+000 -1.697265e+002 -3.163511e+001  1.183739e+002  2.484420e+001  1.700381e+001 -7.374178e+000  6.799277e+001
5.4593125000e+009 -2.024361e+000 -1.699077e+002 -3.166886e+001  1.196191e+002  2.481118e+001  1.699520e+001 -7.489610e+000  6.722505e+001
5.4594375000e+009 -2.220849e+000 -1.689191e+002 -3.203472e+001  1.148300e+002  2.483564e+001  1.621564e+001 -7.199697e+000  6.593388e+001
5.4595625000e+009 -1.854475e+000 -1.711748e+002 -3.186780e+001  1.200414e+002  2.473579e+001  1.519771e+001 -7.388606e+000  6.466454e+001
5.4596875000e+009 -2.046707e+000 -1.710680e+002 -3.166348e+001  1.179480e+002  2.473391e+001  1.553083e+001 -7.302198e+000  6.522298e+001
5.4598125000e+009 -2.324120e+000 -1.699423e+002 -3.137658e+001  1.136104e+002  2.474736e+001  1.448224e+001 -7.175426e+000  6.387521e+001
5.4599375000e+009 -2.064965e+000 -1.701691e+002 -3.207111e+001  1.143892e+002  2.470043e+001  1.354755e+001 -7.138393e+000  6.226858e+001
5.4600625000e+009 -1.932768e+000 -1.701106e+002 -3.150594e+001  1.199212e+002  2.467089e+001  1.351489e+001 -7.357985e+000  6.261934e+001
5.4601875000e+009 -1.892777e+000 -1.715799e+002 -3.128766e+001  1.144482e+002  2.454134e+001  1.328476e+001 -7.148876e+000  6.280256e+001
5.4603125000e+009 -2.176564e+000 -1.710034e+002 -3.178801e+001  1.161541e+002  2.462334e+001  1.248729e+001 -7.154056e+000  6.106893e+001
5.4604375000e+009 -1.962834e+000 -1.722155e+002 -3.218739e+001  1.139232e+002  2.447872e+001  1.229255e+001 -7.074642e+000  6.077810e+001
5.4605625000e+009 -2.090892e+000 -1.714889e+002 -3.217855e+001  1.110468e+002  2.451276e+001  1.179067e+001 -7.026258e+000  5.995619e+001
5.4606875000e+009 -2.067147e+000 -1.719772e+002 -3.171437e+001  1.124906e+002  2.448283e+001  1.090690e+001 -7.030727e+000  5.878323e+001
5.4608125000e+009 -1.978662e+000 -1.727493e+002 -3.176464e+001  1.112337e+002  2.438009e+001  1.069023e+001 -7.031118e+000  5.760168e+001
5.4609375000e+009 -2.181876e+000 -1.728863e+002 -3.203117e+001  1.139857e+002  2.441188e+001  1.037735e+001 -7.040600e+000  5.761875e+001
5.4610625000e+009 -2.130965e+000 -1.720227e+002 -3.233926e+001  1.080902e+002  2.436718e+001  9.606210e+000 -6.944843e+000  5.664539e+001
5.4611875000e+009 -1.991822e+000 -1.727530e+002 -3.225343e+001  1.122280e+002  2.433461e+001  9.475059e+000 -7.062302e+000  5.678413e+001
5.4613125000e+009 -2.305763e+000 -1.729017e+002 -3.163540e+001  1.074330e+002  2.430107e+001  8.487293e+000 -6.795113e+000  5.625884e+001
5.4614375000e+009 -2.098747e+000 -1.737336e+002 -3.189246e+001  1.104042e+002  2.426387e+001  8.109089e+000 -6.932450e+000  5.395832e+001
5.4615625000e+009 -2.090540e+000 -1.740496e+002 -3.196439e+001  1.065244e+002  2.419873e+001  8.007182e+000 -6.927830e+000  5.452527e+001
5.4616875000e+009 -2.257989e+000 -1.733175e+002 -3.237309e+001  1.070276e+002  2.418173e+001  7.087572e+000 -6.836985e+000  5.341652e+001
5.4618125000e+009 -2.149624e+000 -1.737841e+002 -3.241903e+001  1.062709e+002  2.409156e+001  6.241986e+000 -6.825653e+000  5.125167e+001
5.4619375000e+009 -2.103312e+000 -1.749378e+002 -3.164897e+001  1.034110e+002  2.404859e+001  6.344100e+000 -6.833429e+000  5.182355e+001
5.4620625000e+009 -2.181446e+000 -1.748632e+002 -3.191493e+001  1.042550e+002  2.401078e+001  5.380421e+000 -6.777029e+000  5.111358e+001
5.4621875000e+009 -2.199279e+000 -1.745094e+002 -3.212663e+001  1.064744e+002  2.399707e+001  5.044432e+000 -6.881679e+000  4.994674e+001
5.4623125000e+009 -2.235423e+000 -1.749071e+002 -3.212200e+001  1.046905e+002  2.395531e+001  4.443809e+000 -6.835644e+000  4.925780e+001
5.4624375000e+009 -2.344808e+000 -1.754291e+002 -3.256540e+001  1.052056e+002  2.392186e+001  4.273189e+000 -6.948385e+000  4.873533e+001
5.4625625000e+009 -2.178626e+000 -1.758300e+002 -3.175422e+001  1.040351e+002  2.386204e+001  3.351823e+000 -6.770431e+000  4.798440e+001
5.4626875000e+009 -2.239098e+000 -1.753041e+002 -3.205684e+001  1.031355e+002  2.382533e+001  3.246331e+000 -6.899225e+000  4.707018e+001
5.4628125000e+009 -2.376144e+000 -1.754411e+002 -3.182373e+001  9.765495e+001  2.378443e+001  2.405140e+000 -6.709588e+000  4.663351e+001
5.4629375000e+009 -2.440388e+000 -1.750605e+002 -3.216831e+001  9.881631e+001  2.372668e+001  1.909446e+000 -6.815786e+000  4.525064e+001
5.4630625000e+009 -2.273588e+000 -1.766316e+002 -3.163966e+001  1.002507e+002  2.369366e+001  1.502586e+000 -6.867763e+000  4.580843e+001
5.4631875000e+009 -2.675921e+000 -1.765860e+002 -3.231053e+001  9.960094e+001  2.367130e+001  9.373232e-001 -6.896067e+000  4.402164e+001
5.4633125000e+009 -2.245777e+000 -1.770917e+002 -3.204942e+001  1.002782e+002  2.352192e+001  1.886553e-001 -6.823952e+000  4.294629e+001
5.4634375000e+009 -2.448217e+000 -1.772403e+002 -3.174870e+001  9.868769e+001  2.349027e+001 -2.677618e-001 -6.899267e+000  4.264930e+001
5.4635625000e+009 -2.617246e+000 -1.778381e+002 -3.234930e+001  9.307096e+001  2.355483e+001 -6.153089e-001 -6.860020e+000  4.180766e+001
5.4636875000e+009 -2.387182e+000 -1.784021e+002 -3.217460e+001  9.545477e+001  2.336588e+001 -1.574107e+000 -6.879860e+000  4.069359e+001
5.4638125000e+009 -2.341476e+000 -1.776796e+002 -3.240836e+001  9.480329e+001  2.334581e+001 -2.095400e+000 -6.920128e+000  3.978653e+001
5.4639375000e+009 -2.572874e+000 -1.789405e+002 -3.266953e+001  9.503038e+001  2.334767e+001 -1.593433e+000 -7.109987e+000  3.904226e+001
5.4640625000e+009 -2.303071e+000 -1.785048e+002 -3.235525e+001  9.289794e+001  2.316562e+001 -3.134022e+000 -6.982719e+000  3.819041e+001
5.4641875000e+009 -2.552702e+000 -1.789798e+002 -3.200222e+001  9.784673e+001  2.319781e+001 -3.433218e+000 -7.193995e+000  3.820677e+001
5.4643125000e+009 -2.775126e+000  1.799214e+002 -3.305115e+001  9.376487e+001  2.322101e+001 -3.787250e+000 -7.181004e+000  3.646206e+001
5.4644375000e+009 -2.648775e+000 -1.787063e+002 -3.260566e+001  9.317384e+001  2.300891e+001 -5.494058e+000 -7.134471e+000  3.538823e+001
5.4645625000e+009 -2.595078e+000  1.799673e+002 -3.312764e+001  8.823337e+001  2.299146e+001 -5.165242e+000 -7.178736e+000  3.409411e+001
5.4646875000e+009 -2.828070e+000  1.795637e+002 -3.254202e+001  8.727258e+001  2.300073e+001 -5.663821e+000 -7.170981e+000  3.400684e+001
5.4648125000e+009 -2.667523e+000 -1.796789e+002 -3.319232e+001  9.124943e+001  2.284786e+001 -6.812526e+000 -7.317736e+000  3.255531e+001
5.4649375000e+009 -2.757248e+000  1.789790e+002 -3.211142e+001  8.720885e+001  2.278523e+001 -6.903744e+000 -7.276315e+000  3.230468e+001
5.4650625000e+009 -2.822035e+000  1.786015e+002 -3.291167e+001  8.826691e+001  2.278413e+001 -7.531674e+000 -7.395917e+000  3.102085e+001
5.4651875000e+009 -2.793440e+000  1.785499e+002 -3.312981e+001  8.598694e+001  2.259881e+001 -7.901344e+000 -7.513767e+000  2.949143e+001
5.4653125000e+009 -2.705909e+000  1.789255e+002 -3.329175e+001  8.713893e+001  2.264191e+001 -8.179517e+000 -7.605207e+000  2.888897e+001
5.4654375000e+009 -2.841367e+000  1.774518e+002 -3.333287e+001  8.621349e+001  2.257078e+001 -9.141688e+000 -7.640321e+000  2.800747e+001
5.4655625000e+009 -2.944348e+000  1.759931e+002 -3.359986e+001  8.864909e+001  2.240495e+001 -9.329296e+000 -7.797554e+000  2.656464e+001
5.4656875000e+009 -2.786316e+000  1.772000e+002 -3.328960e+001  8.590081e+001  2.222940e+001 -1.022052e+001 -7.831792e+000  2.527960e+001
5.4658125000e+009 -3.024788e+000  1.759358e+002 -3.306228e+001  8.069216e+001  2.221127e+001 -1.096561e+001 -7.799501e+000  2.446904e+001
5.4659375000e+009 -2.976275e+000  1.763082e+002 -3.320475e+001  7.788227e+001  2.205221e+001 -1.207203e+001 -7.795044e+000  2.330866e+001
5.4660625000e+009 -2.881019e+000  1.755617e+002 -3.357109e+001  8.354539e+001  2.194647e+001 -1.256089e+001 -8.055831e+000  2.248390e+001
5.4661875000e+009 -3.238600e+000  1.748747e+002 -3.369685e+001  7.616409e+001  2.198296e+001 -1.302049e+001 -8.066320e+000  2.118669e+001
5.4663125000e+009 -3.034721e+000  1.745569e+002 -3.322368e+001  8.192507e+001  2.185633e+001 -1.287507e+001 -8.276807e+000  2.054011e+001
5.4664375000e+009 -3.071173e+000  1.757289e+002 -3.407518e+001  8.074390e+001  2.169195e+001 -1.335056e+001 -8.424681e+000  1.823678e+001
5.4665625000e+009 -3.235366e+000  1.732440e+002 -3.368538e+001  7.748969e+001  2.173833e+001 -1.327627e+001 -8.554128e+000  1.811255e+001
5.4666875000e+009 -3.147892e+000  1.742751e+002 -3.353695e+001  8.231140e+001  2.155150e+001 -1.531585e+001 -8.722637e+000  1.711184e+001
5.4668125000e+009 -3.323907e+000  1.731825e+002 -3.392833e+001  7.208448e+001  2.136207e+001 -1.587059e+001 -8.661252e+000  1.505911e+001
5.4669375000e+009 -3.334877e+000  1.726620e+002 -3.433321e+001  7.476621e+001  2.126731e+001 -1.659497e+001 -8.884986e+000  1.369249e+001
5.4670625000e+009 -3.357172e+000  1.727880e+002 -3.425161e+001  7.462673e+001  2.107878e+001 -1.741903e+001 -9.004436e+000  1.236632e+001
5.4671875000e+009 -3.412951e+000  1.727529e+002 -3.495024e+001  7.722947e+001  2.097658e+001 -1.776523e+001 -9.215758e+000  1.081026e+001
5.4673125000e+009 -3.570300e+000  1.704466e+002 -3.453305e+001  7.296312e+001  2.096100e+001 -1.716457e+001 -9.420898e+000  9.492930e+000
5.4674375000e+009 -3.463902e+000  1.714716e+002 -3.581482e+001  6.795572e+001  2.068624e+001 -1.959371e+001 -9.498394e+000  7.148539e+000
5.4675625000e+009 -3.621593e+000  1.723360e+002 -3.506222e+001  6.968571e+001  2.065527e+001 -1.878181e+001 -9.671460e+000  6.333540e+000
5.4676875000e+009 -3.687456e+000  1.686391e+002 -3.534230e+001  6.833169e+001  2.051581e+001 -1.874399e+001 -9.939308e+000  4.324294e+000
5.4678125000e+009 -3.618866e+000  1.698520e+002 -3.601212e+001  7.145696e+001  2.034873e+001 -2.048042e+001 -1.025396e+001  3.054296e+000
5.4679375000e+009 -3.663023e+000  1.700853e+002 -3.588562e+001  7.111455e+001  2.018884e+001 -1.980506e+001 -1.047993e+001  7.740407e-001
5.4680625000e+009 -3.841526e+000  1.684954e+002 -3.547705e+001  6.941338e+001  2.007930e+001 -2.114342e+001 -1.079686e+001  7.221857e-001
5.4681875000e+009 -3.850966e+000  1.684117e+002 -3.737804e+001  7.311442e+001  1.993791e+001 -2.178826e+001 -1.106078e+001 -1.844940e+000
5.4683125000e+009 -3.873872e+000  1.695331e+002 -3.482933e+001  6.751214e+001  1.967981e+001 -2.221982e+001 -1.106581e+001 -2.780965e+000
5.4684375000e+009 -4.006355e+000  1.676024e+002 -3.699441e+001  6.661926e+001  1.953229e+001 -2.180685e+001 -1.143286e+001 -6.404363e+000
5.4685625000e+009 -4.112939e+000  1.673244e+002 -3.652819e+001  6.722040e+001  1.941423e+001 -2.317465e+001 -1.181621e+001 -6.755829e+000
5.4686875000e+009 -4.082557e+000  1.684931e+002 -3.635062e+001  5.844666e+001  1.908275e+001 -2.372216e+001 -1.173232e+001 -9.335416e+000
5.4688125000e+009 -4.241432e+000  1.662256e+002 -3.733703e+001  6.117015e+001  1.888428e+001 -2.322809e+001 -1.202260e+001 -1.217072e+001
5.4689375000e+009 -4.257143e+000  1.665627e+002 -3.742942e+001  5.841545e+001  1.870301e+001 -2.468107e+001 -1.266853e+001 -1.356163e+001
5.4690625000e+009 -4.316796e+000  1.664498e+002 -3.653272e+001  6.114908e+001  1.843860e+001 -2.405868e+001 -1.276706e+001 -1.579250e+001
5.4691875000e+009 -4.408608e+000  1.659273e+002 -3.868731e+001  6.106496e+001  1.822038e+001 -2.380739e+001 -1.307713e+001 -1.948142e+001
5.4693125000e+009 -4.451918e+000  1.657032e+002 -3.926783e+001  5.645134e+001  1.793090e+001 -2.435793e+001 -1.343401e+001 -2.360950e+001
5.4694375000e+009 -4.519311e+000  1.655652e+002 -3.850284e+001  5.420639e+001  1.763855e+001 -2.373160e+001 -1.363587e+001 -2.752261e+001
5.4695625000e+009 -4.698279e+000  1.648706e+002 -3.977144e+001  5.667467e+001  1.745268e+001 -2.443303e+001 -1.413266e+001 -2.939255e+001
5.4696875000e+009 -4.772447e+000  1.647372e+002 -3.938655e+001  6.600099e+001  1.722496e+001 -2.495117e+001 -1.502494e+001 -3.237552e+001
5.4698125000e+009 -4.811831e+000  1.650067e+002 -3.894475e+001  5.461319e+001  1.684991e+001 -2.439084e+001 -1.462228e+001 -3.694261e+001
5.4699375000e+009 -4.947977e+000  1.642620e+002 -3.966165e+001  4.862962e+001  1.662501e+001 -2.460807e+001 -1.516833e+001 -3.962094e+001
5.4700625000e+009 -5.041464e+000  1.637810e+002 -3.992097e+001  6.570628e+001  1.625891e+001 -2.510038e+001 -1.610518e+001 -4.154134e+001
5.4701875000e+009 -5.067266e+000  1.641388e+002 -4.007682e+001  5.194501e+001  1.589729e+001 -2.407153e+001 -1.568545e+001 -4.768898e+001
5.4703125000e+009 -5.189161e+000  1.636558e+002 -4.018066e+001  4.732048e+001  1.563691e+001 -2.437522e+001 -1.637924e+001 -5.190707e+001
5.4704375000e+009 -5.294219e+000  1.635437e+002 -4.218144e+001  5.778304e+001  1.522170e+001 -2.481672e+001 -1.735174e+001 -5.578299e+001
5.4705625000e+009 -5.393251e+000  1.632085e+002 -4.091714e+001  6.425227e+001  1.485031e+001 -2.341350e+001 -1.690095e+001 -6.015655e+001
5.4706875000e+009 -5.569284e+000  1.631366e+002 -4.230357e+001  5.665048e+001  1.449916e+001 -2.249472e+001 -1.725325e+001 -6.768506e+001
5.4708125000e+009 -5.558170e+000  1.629748e+002 -4.289796e+001  5.990471e+001  1.411478e+001 -2.230991e+001 -1.792903e+001 -7.278458e+001
5.4709375000e+009 -5.663307e+000  1.633927e+002 -4.289636e+001  5.226444e+001  1.370732e+001 -2.168236e+001 -1.829022e+001 -8.091657e+001
5.4710625000e+009 -5.758061e+000  1.628548e+002 -4.376104e+001  6.088436e+001  1.315756e+001 -1.976963e+001 -1.725869e+001 -8.056061e+001
5.4711875000e+009 -5.873109e+000  1.630129e+002 -4.458746e+001  4.829007e+001  1.283577e+001 -1.955914e+001 -1.917378e+001 -9.299524e+001
5.4713125000e+009 -5.923217e+000  1.632502e+002 -4.494446e+001  5.874289e+001  1.251894e+001 -1.714364e+001 -1.875492e+001 -1.047336e+002
5.4714375000e+009 -6.095448e+000  1.632545e+002 -4.555687e+001  5.348894e+001  1.212549e+001 -1.537994e+001 -1.792825e+001 -1.081239e+002
5.4715625000e+009 -6.214408e+000  1.631974e+002 -4.793964e+001  6.453095e+001  1.156194e+001 -1.297216e+001 -1.800866e+001 -1.163433e+002
5.4716875000e+009 -6.245016e+000  1.632269e+002 -4.739686e+001  7.926801e+001  1.117048e+001 -1.037842e+001 -1.733148e+001 -1.219334e+002
5.4718125000e+009 -6.418968e+000  1.628834e+002 -4.669903e+001  5.905504e+001  1.061660e+001 -7.170558e+000 -1.734158e+001 -1.181335e+002
5.4719375000e+009 -6.373143e+000  1.632562e+002 -4.534535e+001  6.651685e+001  1.037274e+001 -4.099044e+000 -1.711039e+001 -1.358746e+002
5.4720625000e+009 -6.579531e+000  1.628919e+002 -4.995530e+001  8.944376e+001  1.005159e+001 -3.807523e-001 -1.670985e+001 -1.381227e+002
5.4721875000e+009 -6.718835e+000  1.634890e+002 -4.771045e+001  8.437602e+001  9.631335e+000  3.722632e+000 -1.632441e+001 -1.351845e+002
5.4723125000e+009 -6.719594e+000  1.636663e+002 -5.410617e+001  9.156699e+001  9.449948e+000  8.855368e+000 -1.569149e+001 -1.435286e+002
5.4724375000e+009 -6.763713e+000  1.638777e+002 -5.011179e+001  1.019097e+002  9.296240e+000  1.282983e+001 -1.541847e+001 -1.505165e+002
5.4725625000e+009 -6.980124e+000  1.649929e+002 -4.752221e+001  1.033492e+002  9.148087e+000  1.787053e+001 -1.539363e+001 -1.472072e+002
5.4726875000e+009 -6.986931e+000  1.651565e+002 -5.531754e+001  1.323072e+002  9.349451e+000  2.272202e+001 -1.418597e+001 -1.576555e+002
5.4728125000e+009 -6.895125e+000  1.638767e+002 -5.207244e+001  1.211531e+002  9.250805e+000  2.679797e+001 -1.452108e+001 -1.586913e+002
5.4729375000e+009 -7.249713e+000  1.644570e+002 -4.635918e+001  1.176441e+002  9.306721e+000  3.235811e+001 -1.462346e+001 -1.549960e+002
5.4730625000e+009 -7.271664e+000  1.657481e+002 -4.976771e+001  1.222812e+002  9.876233e+000  3.583035e+001 -1.328864e+001 -1.659760e+002
5.4731875000e+009 -7.146312e+000  1.647915e+002 -4.960867e+001  1.100911e+002  1.015782e+001  3.957168e+001 -1.274692e+001 -1.680726e+002
5.4733125000e+009 -7.505357e+000  1.666026e+002 -4.725018e+001  1.322431e+002  1.025074e+001  4.267083e+001 -1.343165e+001 -1.655990e+002
5.4734375000e+009 -7.444339e+000  1.664809e+002 -4.981150e+001  1.450110e+002  1.091278e+001  4.617803e+001 -1.235186e+001 -1.718916e+002
5.4735625000e+009 -7.272203e+000  1.652953e+002 -4.884497e+001  1.266654e+002  1.128844e+001  4.786448e+001 -1.162368e+001 -1.752026e+002
5.4736875000e+009 -7.566741e+000  1.669066e+002 -4.898906e+001  1.527140e+002  1.159552e+001  5.076041e+001 -1.191449e+001 -1.738263e+002
5.4738125000e+009 -7.667775e+000  1.679275e+002 -4.591224e+001  1.244742e+002  1.201077e+001  5.257903e+001 -1.124660e+001 -1.799561e+002
5.4739375000e+009 -7.662612e+000  1.676441e+002 -4.775588e+001  1.501767e+002  1.245943e+001  5.423497e+001 -1.104278e+001 -1.793510e+002
5.4740625000e+009 -7.761467e+000  1.666231e+002 -4.564809e+001  1.566055e+002  1.264869e+001  5.595862e+001 -1.115596e+001  1.772968e+002
5.4741875000e+009 -7.884018e+000  1.681100e+002 -4.643370e+001  1.569048e+002  1.322549e+001  5.650582e+001 -1.058003e+001  1.761235e+002
5.4743125000e+009 -7.583247e+000  1.679001e+002 -4.439594e+001  1.603870e+002  1.354890e+001  5.815989e+001 -1.040755e+001  1.747666e+002
5.4744375000e+009 -8.086244e+000  1.689309e+002 -4.773796e+001  1.343630e+002  1.387924e+001  5.937761e+001 -1.040428e+001  1.740711e+002
5.4745625000e+009 -8.006139e+000  1.698292e+002 -4.487709e+001  1.512557e+002  1.425395e+001  5.937208e+001 -9.793348e+000  1.709968e+002
5.4746875000e+009 -7.756756e+000  1.695525e+002 -4.402086e+001  1.488143e+002  1.452365e+001  6.029274e+001 -9.715064e+000  1.700522e+002
5.4748125000e+009 -8.113588e+000  1.704455e+002 -4.364522e+001  1.400421e+002  1.482508e+001  6.131724e+001 -9.839475e+000  1.693869e+002
5.4749375000e+009 -8.100610e+000  1.708668e+002 -4.472235e+001  1.603273e+002  1.536350e+001  6.096265e+001 -9.046527e+000  1.685223e+002
5.4750625000e+009 -7.997680e+000  1.716354e+002 -4.378602e+001  1.458237e+002  1.553512e+001  6.064603e+001 -8.690330e+000  1.657857e+002
5.4751875000e+009 -8.251482e+000  1.717063e+002 -4.500953e+001  1.489186e+002  1.573984e+001  6.156443e+001 -9.054078e+000  1.647990e+002
5.4753125000e+009 -8.423362e+000  1.710303e+002 -4.432104e+001  1.377515e+002  1.607854e+001  6.176352e+001 -8.681745e+000  1.640403e+002
5.4754375000e+009 -8.126340e+000  1.725289e+002 -4.283766e+001  1.624088e+002  1.647021e+001  6.124485e+001 -8.076436e+000  1.639732e+002
5.4755625000e+009 -8.413739e+000  1.716861e+002 -4.292518e+001  1.483389e+002  1.661702e+001  6.143466e+001 -8.100843e+000  1.622109e+002
5.4756875000e+009 -8.162814e+000  1.715809e+002 -4.299262e+001  1.530521e+002  1.681254e+001  6.173812e+001 -8.017231e+000  1.610814e+002
5.4758125000e+009 -8.234415e+000  1.717262e+002 -4.226749e+001  1.526435e+002  1.719572e+001  6.066953e+001 -7.374192e+000  1.610653e+002
5.4759375000e+009 -8.184415e+000  1.715117e+002 -4.145781e+001  1.583321e+002  1.723761e+001  6.129024e+001 -7.686845e+000  1.595340e+002
5.4760625000e+009 -8.474070e+000  1.731218e+002 -4.081814e+001  1.550145e+002  1.744529e+001  6.044821e+001 -7.348805e+000  1.574167e+002
5.4761875000e+009 -8.350057e+000  1.723066e+002 -4.032782e+001  1.514054e+002  1.768446e+001  6.060906e+001 -7.211264e+000  1.571564e+002
5.4763125000e+009 -8.378762e+000  1.726870e+002 -4.101132e+001  1.561299e+002  1.792321e+001  6.067995e+001 -7.254777e+000  1.573225e+002
5.4764375000e+009 -8.799904e+000  1.731513e+002 -3.979143e+001  1.584350e+002  1.806282e+001  6.018775e+001 -7.007927e+000  1.562722e+002
5.4765625000e+009 -8.321230e+000  1.719951e+002 -3.980260e+001  1.506062e+002  1.823416e+001  5.965190e+001 -6.723454e+000  1.546946e+002
5.4766875000e+009 -8.505089e+000  1.722407e+002 -4.072464e+001  1.501418e+002  1.840883e+001  6.003008e+001 -6.823305e+000  1.542399e+002
5.4768125000e+009 -8.367477e+000  1.724264e+002 -3.960412e+001  1.581396e+002  1.846174e+001  5.925171e+001 -6.640828e+000  1.530247e+002
5.4769375000e+009 -7.825392e+000  1.751020e+002 -3.846358e+001  1.581707e+002  1.863720e+001  5.795243e+001 -6.310503e+000  1.528035e+002
5.4770625000e+009 -8.668492e+000  1.735750e+002 -4.210702e+001  1.469850e+002  1.881089e+001  5.858330e+001 -6.483147e+000  1.507809e+002
5.4771875000e+009 -8.826858e+000  1.724981e+002 -3.926421e+001  1.478061e+002  1.902045e+001  5.809755e+001 -6.212286e+000  1.511373e+002
5.4773125000e+009 -8.218864e+000  1.729859e+002 -3.934475e+001  1.460713e+002  1.904899e+001  5.790149e+001 -6.124841e+000  1.497957e+002
5.4774375000e+009 -8.909054e+000  1.732417e+002 -3.981390e+001  1.518141e+002  1.916828e+001  5.763005e+001 -6.155467e+000  1.488071e+002
5.4775625000e+009 -8.645211e+000  1.728883e+002 -3.935055e+001  1.582039e+002  1.942324e+001  5.662866e+001 -5.903071e+000  1.491369e+002
5.4776875000e+009 -8.452987e+000  1.726356e+002 -3.944140e+001  1.570238e+002  1.938400e+001  5.629296e+001 -5.866045e+000  1.472495e+002
5.4778125000e+009 -8.478557e+000  1.734917e+002 -3.954110e+001  1.490661e+002  1.952098e+001  5.657759e+001 -5.781885e+000  1.464789e+002
5.4779375000e+009 -8.632924e+000  1.722870e+002 -3.925442e+001  1.544650e+002  1.973584e+001  5.620311e+001 -5.633191e+000  1.471293e+002
5.4780625000e+009 -8.647675e+000  1.725657e+002 -3.919181e+001  1.506439e+002  1.992447e+001  5.559942e+001 -5.568757e+000  1.467148e+002
5.4781875000e+009 -8.899296e+000  1.719842e+002 -3.906789e+001  1.479851e+002  1.989778e+001  5.532708e+001 -5.545526e+000  1.446962e+002
5.4783125000e+009 -8.695065e+000  1.744178e+002 -3.977303e+001  1.528411e+002  2.003232e+001  5.462782e+001 -5.381793e+000  1.444632e+002
5.4784375000e+009 -8.659179e+000  1.726677e+002 -3.780831e+001  1.480240e+002  2.011997e+001  5.412972e+001 -5.200495e+000  1.444054e+002
5.4785625000e+009 -8.487078e+000  1.735286e+002 -3.826485e+001  1.466115e+002  2.017599e+001  5.398717e+001 -5.231611e+000  1.436410e+002
5.4786875000e+009 -8.767342e+000  1.747763e+002 -3.912366e+001  1.664568e+002  2.028667e+001  5.351091e+001 -5.358168e+000  1.428484e+002
5.4788125000e+009 -8.575277e+000  1.729544e+002 -3.818819e+001  1.493089e+002  2.046555e+001  5.277573e+001 -4.989210e+000  1.425948e+002
5.4789375000e+009 -9.133384e+000  1.716647e+002 -3.840127e+001  1.436460e+002  2.045505e+001  5.277040e+001 -4.963293e+000  1.413046e+002
5.4790625000e+009 -9.173433e+000  1.729504e+002 -3.854386e+001  1.552329e+002  2.058079e+001  5.189837e+001 -4.919140e+000  1.414202e+002
5.4791875000e+009 -8.760591e+000  1.737560e+002 -3.758494e+001  1.468389e+002  2.067297e+001  5.143464e+001 -4.776880e+000  1.408568e+002
5.4793125000e+009 -8.660386e+000  1.735381e+002 -3.693333e+001  1.456363e+002  2.070894e+001  5.159400e+001 -4.767331e+000  1.407137e+002
5.4794375000e+009 -9.079931e+000  1.724961e+002 -3.858829e+001  1.414384e+002  2.082186e+001  5.103421e+001 -4.706989e+000  1.394821e+002
5.4795625000e+009 -8.711737e+000  1.722780e+002 -3.712235e+001  1.531448e+002  2.097125e+001  5.023219e+001 -4.625108e+000  1.401708e+002
5.4796875000e+009 -9.098248e+000  1.717991e+002 -3.924235e+001  1.478660e+002  2.099440e+001  5.027727e+001 -4.689173e+000  1.385622e+002
5.4798125000e+009 -8.423874e+000  1.728134e+002 -3.699627e+001  1.513707e+002  2.110757e+001  4.974456e+001 -4.491652e+000  1.394825e+002
5.4799375000e+009 -8.768950e+000  1.718251e+002 -3.665733e+001  1.469383e+002  2.112531e+001  4.881786e+001 -4.351830e+000  1.383480e+002
5.4800625000e+009 -9.190001e+000  1.721146e+002 -3.707256e+001  1.543665e+002  2.104314e+001  4.916483e+001 -4.545817e+000  1.377888e+002
5.4801875000e+009 -9.043821e+000  1.725094e+002 -3.742732e+001  1.477951e+002  2.120510e+001  4.851387e+001 -4.390265e+000  1.371856e+002
5.4803125000e+009 -8.777113e+000  1.744368e+002 -3.736115e+001  1.459245e+002  2.116390e+001  4.811282e+001 -4.356168e+000  1.365147e+002
5.4804375000e+009 -8.676586e+000  1.705542e+002 -3.619781e+001  1.441013e+002  2.121553e+001  4.799734e+001 -4.226264e+000  1.366123e+002
5.4805625000e+009 -9.031497e+000  1.706261e+002 -3.722584e+001  1.465541e+002  2.132447e+001  4.773041e+001 -4.279790e+000  1.359214e+002
5.4806875000e+009 -8.784334e+000  1.716461e+002 -3.705029e+001  1.384106e+002  2.136813e+001  4.692799e+001 -4.112771e+000  1.349850e+002
5.4808125000e+009 -8.830210e+000  1.736102e+002 -3.658326e+001  1.469485e+002  2.142324e+001  4.643998e+001 -4.139576e+000  1.353212e+002
5.4809375000e+009 -8.654576e+000  1.722791e+002 -3.560029e+001  1.428608e+002  2.146336e+001  4.638611e+001 -3.992144e+000  1.355489e+002
5.4810625000e+009 -8.870428e+000  1.719367e+002 -3.740836e+001  1.377806e+002  2.163744e+001  4.562171e+001 -3.966810e+000  1.333994e+002
5.4811875000e+009 -8.724686e+000  1.720122e+002 -3.645759e+001  1.492122e+002  2.152223e+001  4.550087e+001 -4.022462e+000  1.340164e+002
5.4813125000e+009 -9.192085e+000  1.675175e+002 -3.675652e+001  1.384866e+002  2.165901e+001  4.543747e+001 -3.894765e+000  1.327470e+002
5.4814375000e+009 -8.958385e+000  1.729548e+002 -3.652022e+001  1.416438e+002  2.174638e+001  4.442827e+001 -3.827881e+000  1.325991e+002
5.4815625000e+009 -8.921872e+000  1.713501e+002 -3.659660e+001  1.431748e+002  2.166242e+001  4.470297e+001 -3.976714e+000  1.326837e+002
5.4816875000e+009 -9.148375e+000  1.691067e+002 -3.628367e+001  1.415635e+002  2.177764e+001  4.432780e+001 -3.814787e+000  1.324104e+002
5.4818125000e+009 -8.736139e+000  1.714898e+002 -3.704355e+001  1.413463e+002  2.177511e+001  4.347429e+001 -3.824618e+000  1.314303e+002
5.4819375000e+009 -8.907954e+000  1.698130e+002 -3.543378e+001  1.412805e+002  2.174946e+001  4.364030e+001 -3.836166e+000  1.318116e+002
5.4820625000e+009 -8.998081e+000  1.695166e+002 -3.555721e+001  1.435828e+002  2.190670e+001  4.300364e+001 -3.669446e+000  1.313541e+002
5.4821875000e+009 -8.665961e+000  1.710149e+002 -3.549638e+001  1.446808e+002  2.186668e+001  4.260186e+001 -3.735490e+000  1.311788e+002
5.4823125000e+009 -8.934243e+000  1.709647e+002 -3.615436e+001  1.400983e+002  2.190357e+001  4.221325e+001 -3.677091e+000  1.304751e+002
5.4824375000e+009 -9.224705e+000  1.681030e+002 -3.652940e+001  1.314947e+002  2.195762e+001  4.215076e+001 -3.589920e+000  1.291369e+002
5.4825625000e+009 -8.781110e+000  1.711496e+002 -3.532943e+001  1.428181e+002  2.197590e+001  4.147338e+001 -3.591650e+000  1.299641e+002
5.4826875000e+009 -9.006135e+000  1.708798e+002 -3.553077e+001  1.371682e+002  2.190564e+001  4.161719e+001 -3.702857e+000  1.300123e+002
5.4828125000e+009 -9.033038e+000  1.701731e+002 -3.645052e+001  1.365616e+002  2.200681e+001  4.109104e+001 -3.613685e+000  1.287817e+002
5.4829375000e+009 -9.095820e+000  1.691836e+002 -3.625922e+001  1.404913e+002  2.208728e+001  4.047690e+001 -3.514230e+000  1.280191e+002
5.4830625000e+009 -9.008155e+000  1.698608e+002 -3.590562e+001  1.368866e+002  2.206607e+001  4.026835e+001 -3.538475e+000  1.282578e+002
5.4831875000e+009 -9.362765e+000  1.647854e+002 -3.543849e+001  1.392522e+002  2.216388e+001  4.035070e+001 -3.458323e+000  1.286643e+002
5.4833125000e+009 -9.337966e+000  1.672849e+002 -3.535604e+001  1.292796e+002  2.218123e+001  3.962705e+001 -3.303503e+000  1.269694e+002
5.4834375000e+009 -8.744960e+000  1.691397e+002 -3.676782e+001  1.364974e+002  2.208851e+001  3.939059e+001 -3.546492e+000  1.265172e+002
5.4835625000e+009 -8.834515e+000  1.641467e+002 -3.563616e+001  1.347932e+002  2.218491e+001  3.945980e+001 -3.374575e+000  1.272523e+002
5.4836875000e+009 -8.772330e+000  1.681911e+002 -3.584401e+001  1.361179e+002  2.220711e+001  3.847573e+001 -3.312354e+000  1.256026e+002
5.4838125000e+009 -9.346340e+000  1.673108e+002 -3.565566e+001  1.362357e+002  2.230231e+001  3.868613e+001 -3.376209e+000  1.261796e+002
5.4839375000e+009 -9.353856e+000  1.646317e+002 -3.512884e+001  1.331101e+002  2.228209e+001  3.840444e+001 -3.376316e+000  1.264732e+002
5.4840625000e+009 -9.446587e+000  1.684788e+002 -3.502634e+001  1.316467e+002  2.235532e+001  3.729953e+001 -3.138703e+000  1.251906e+002
5.4841875000e+009 -9.109452e+000  1.711954e+002 -3.506592e+001  1.353099e+002  2.227602e+001  3.704425e+001 -3.357007e+000  1.261994e+002
5.4843125000e+009 -9.233792e+000  1.677994e+002 -3.527473e+001  1.358189e+002  2.234156e+001  3.721777e+001 -3.328065e+000  1.257424e+002
5.4844375000e+009 -8.829288e+000  1.673991e+002 -3.510398e+001  1.351292e+002  2.234234e+001  3.668021e+001 -3.168854e+000  1.248869e+002
5.4845625000e+009 -9.126977e+000  1.668583e+002 -3.453422e+001  1.278242e+002  2.236157e+001  3.659956e+001 -3.154993e+000  1.247028e+002
5.4846875000e+009 -9.291973e+000  1.641734e+002 -3.503256e+001  1.284315e+002  2.240697e+001  3.638020e+001 -3.151629e+000  1.244826e+002
5.4848125000e+009 -8.874284e+000  1.709051e+002 -3.598346e+001  1.325302e+002  2.238407e+001  3.520256e+001 -3.207470e+000  1.236560e+002
5.4849375000e+009 -9.206860e+000  1.654681e+002 -3.443281e+001  1.297784e+002  2.242202e+001  3.582339e+001 -3.109975e+000  1.236316e+002
5.4850625000e+009 -9.281659e+000  1.655094e+002 -3.609076e+001  1.302802e+002  2.248587e+001  3.551522e+001 -3.240216e+000  1.230812e+002
5.4851875000e+009 -9.243086e+000  1.666262e+002 -3.517925e+001  1.335312e+002  2.248193e+001  3.478469e+001 -3.127800e+000  1.231476e+002
5.4853125000e+009 -9.273404e+000  1.656413e+002 -3.393716e+001  1.304329e+002  2.246778e+001  3.491899e+001 -3.096663e+000  1.232399e+002
5.4854375000e+009 -9.368486e+000  1.636548e+002 -3.490664e+001  1.269157e+002  2.249438e+001  3.468817e+001 -3.100836e+000  1.222462e+002
5.4855625000e+009 -9.139238e+000  1.655206e+002 -3.416142e+001  1.330264e+002  2.250373e+001  3.376917e+001 -2.950957e+000  1.222457e+002
5.4856875000e+009 -9.267381e+000  1.653734e+002 -3.463377e+001  1.312847e+002  2.254487e+001  3.406017e+001 -3.154168e+000  1.224533e+002
5.4858125000e+009 -9.187430e+000  1.657049e+002 -3.484597e+001  1.332495e+002  2.249776e+001  3.372989e+001 -3.192013e+000  1.217116e+002
5.4859375000e+009 -9.367562e+000  1.649795e+002 -3.492590e+001  1.284438e+002  2.254615e+001  3.329163e+001 -3.126568e+000  1.211114e+002
5.4860625000e+009 -9.436125e+000  1.643337e+002 -3.404972e+001  1.325296e+002  2.263450e+001  3.237144e+001 -2.901630e+000  1.216813e+002
5.4861875000e+009 -9.214452e+000  1.635565e+002 -3.363856e+001  1.293005e+002  2.254464e+001  3.299953e+001 -3.001202e+000  1.214338e+002
5.4863125000e+009 -9.341868e+000  1.646870e+002 -3.505345e+001  1.314137e+002  2.266166e+001  3.227555e+001 -3.074378e+000  1.212639e+002
5.4864375000e+009 -9.371435e+000  1.630810e+002 -3.436615e+001  1.283476e+002  2.261280e+001  3.281369e+001 -3.152767e+000  1.206853e+002
5.4865625000e+009 -9.587986e+000  1.620799e+002 -3.451883e+001  1.218030e+002  2.265768e+001  3.215677e+001 -2.993575e+000  1.192765e+002
5.4866875000e+009 -9.458792e+000  1.653224e+002 -3.460500e+001  1.292346e+002  2.264925e+001  3.124798e+001 -3.037844e+000  1.199070e+002
5.4868125000e+009 -9.502473e+000  1.647250e+002 -3.458616e+001  1.305773e+002  2.261296e+001  3.019776e+001 -2.839395e+000  1.188271e+002
5.4869375000e+009 -9.323817e+000  1.601236e+002 -3.514571e+001  1.260076e+002  2.263185e+001  3.153873e+001 -3.199082e+000  1.186840e+002
5.4870625000e+009 -9.458646e+000  1.629060e+002 -3.449155e+001  1.216118e+002  2.268927e+001  3.036938e+001 -2.860599e+000  1.180316e+002
5.4871875000e+009 -9.657201e+000  1.635764e+002 -3.400830e+001  1.247376e+002  2.268718e+001  2.987815e+001 -2.873396e+000  1.185993e+002
5.4873125000e+009 -9.367386e+000  1.619055e+002 -3.422408e+001  1.262163e+002  2.271188e+001  3.010882e+001 -2.950395e+000  1.184737e+002
5.4874375000e+009 -9.603337e+000  1.625190e+002 -3.402341e+001  1.245262e+002  2.275651e+001  2.947043e+001 -2.839926e+000  1.182731e+002
5.4875625000e+009 -9.578087e+000  1.617710e+002 -3.356037e+001  1.248456e+002  2.267642e+001  2.983279e+001 -2.958493e+000  1.178157e+002
5.4876875000e+009 -9.544764e+000  1.611787e+002 -3.432292e+001  1.186301e+002  2.276576e+001  2.959900e+001 -2.958098e+000  1.169253e+002
5.4878125000e+009 -9.370771e+000  1.635044e+002 -3.448355e+001  1.288925e+002  2.267952e+001  2.831911e+001 -2.922834e+000  1.172178e+002
5.4879375000e+009 -9.542398e+000  1.625694e+002 -3.435676e+001  1.291344e+002  2.275509e+001  2.905171e+001 -3.073558e+000  1.178250e+002
5.4880625000e+009 -9.361562e+000  1.630756e+002 -3.519324e+001  1.252666e+002  2.261721e+001  2.888495e+001 -3.235794e+000  1.159360e+002
5.4881875000e+009 -9.482003e+000  1.602829e+002 -3.389325e+001  1.208046e+002  2.283492e+001  2.877674e+001 -2.944615e+000  1.169107e+002
5.4883125000e+009 -9.561796e+000  1.613019e+002 -3.363762e+001  1.204004e+002  2.277609e+001  2.825534e+001 -2.940514e+000  1.163017e+002
5.4884375000e+009 -9.610177e+000  1.619025e+002 -3.453782e+001  1.161879e+002  2.278216e+001  2.815491e+001 -3.096242e+000  1.153930e+002
5.4885625000e+009 -9.290307e+000  1.598304e+002 -3.427669e+001  1.253710e+002  2.270452e+001  2.817396e+001 -3.125950e+000  1.158783e+002
5.4886875000e+009 -9.219865e+000  1.624349e+002 -3.460318e+001  1.271686e+002  2.273075e+001  2.734492e+001 -3.149058e+000  1.158318e+002
5.4888125000e+009 -9.172560e+000  1.602769e+002 -3.366998e+001  1.156791e+002  2.271707e+001  2.840287e+001 -3.153057e+000  1.149541e+002
5.4889375000e+009 -9.367353e+000  1.616256e+002 -3.490496e+001  1.154605e+002  2.271691e+001  2.657156e+001 -3.037522e+000  1.137895e+002
5.4890625000e+009 -9.195086e+000  1.604207e+002 -3.346021e+001  1.288484e+002  2.271517e+001  2.738700e+001 -3.162159e+000  1.162012e+002
5.4891875000e+009 -8.983638e+000  1.603150e+002 -3.436145e+001  1.195661e+002  2.270517e+001  2.700792e+001 -3.198589e+000  1.140866e+002
5.4893125000e+009 -9.606438e+000  1.615722e+002 -3.421677e+001  1.126412e+002  2.281593e+001  2.548765e+001 -2.962186e+000  1.130900e+002
5.4894375000e+009 -9.341700e+000  1.605465e+002 -3.411396e+001  1.207992e+002  2.274739e+001  2.615751e+001 -3.169588e+000  1.140567e+002
5.4895625000e+009 -9.273138e+000  1.586809e+002 -3.359041e+001  1.222968e+002  2.277117e+001  2.672449e+001 -3.237952e+000  1.144244e+002
5.4896875000e+009 -9.230568e+000  1.606750e+002 -3.480812e+001  1.197609e+002  2.278519e+001  2.663295e+001 -3.406848e+000  1.136279e+002
5.4898125000e+009 -9.210032e+000  1.602761e+002 -3.434887e+001  1.257275e+002  2.269218e+001  2.578062e+001 -3.325683e+000  1.134399e+002
5.4899375000e+009 -9.227808e+000  1.601761e+002 -3.443228e+001  1.190593e+002  2.266989e+001  2.611764e+001 -3.391409e+000  1.123813e+002
5.4900625000e+009 -9.304666e+000  1.589552e+002 -3.357827e+001  1.227151e+002  2.281451e+001  2.479462e+001 -3.115273e+000  1.134702e+002
5.4901875000e+009 -9.458328e+000  1.606649e+002 -3.488153e+001  1.192377e+002  2.275237e+001  2.519759e+001 -3.439141e+000  1.120922e+002
5.4903125000e+009 -9.018013e+000  1.596440e+002 -3.450557e+001  1.116266e+002  2.273317e+001  2.571904e+001 -3.422675e+000  1.113202e+002
5.4904375000e+009 -9.348170e+000  1.591993e+002 -3.456685e+001  1.121734e+002  2.275636e+001  2.491566e+001 -3.405257e+000  1.110214e+002
5.4905625000e+009 -9.501944e+000  1.593223e+002 -3.385614e+001  1.099047e+002  2.277118e+001  2.570910e+001 -3.465638e+000  1.108436e+002
5.4906875000e+009 -9.355521e+000  1.587307e+002 -3.435550e+001  1.162840e+002  2.279098e+001  2.494813e+001 -3.519729e+000  1.115085e+002
5.4908125000e+009 -9.329304e+000  1.572421e+002 -3.310342e+001  1.156108e+002  2.278699e+001  2.401382e+001 -3.206464e+000  1.108789e+002
5.4909375000e+009 -9.318912e+000  1.587148e+002 -3.448084e+001  1.192948e+002  2.269702e+001  2.452711e+001 -3.633938e+000  1.104812e+002
5.4910625000e+009 -9.146297e+000  1.580049e+002 -3.387714e+001  1.185123e+002  2.276927e+001  2.430797e+001 -3.499891e+000  1.110441e+002
5.4911875000e+009 -9.285116e+000  1.582045e+002 -3.482873e+001  1.088041e+002  2.267028e+001  2.388793e+001 -3.629003e+000  1.085742e+002
5.4913125000e+009 -9.340417e+000  1.577834e+002 -3.332572e+001  1.111438e+002  2.273726e+001  2.369096e+001 -3.441493e+000  1.091908e+002
5.4914375000e+009 -9.253193e+000  1.571016e+002 -3.323380e+001  1.135269e+002  2.262819e+001  2.405043e+001 -3.550435e+000  1.089556e+002
5.4915625000e+009 -9.242663e+000  1.582644e+002 -3.467762e+001  1.095758e+002  2.273016e+001  2.358139e+001 -3.716508e+000  1.083998e+002
5.4916875000e+009 -9.262376e+000  1.580254e+002 -3.419627e+001  1.156352e+002  2.269676e+001  2.276903e+001 -3.644330e+000  1.086723e+002
5.4918125000e+009 -9.205588e+000  1.569113e+002 -3.410886e+001  1.154542e+002  2.259469e+001  2.348264e+001 -3.773113e+000  1.077377e+002
5.4919375000e+009 -9.244799e+000  1.575581e+002 -3.440208e+001  1.123500e+002  2.276485e+001  2.252507e+001 -3.697701e+000  1.082763e+002
5.4920625000e+009 -9.346324e+000  1.573774e+002 -3.459514e+001  1.102005e+002  2.272960e+001  2.208919e+001 -3.725713e+000  1.070869e+002
5.4921875000e+009 -9.131020e+000  1.560170e+002 -3.410734e+001  1.136291e+002  2.271245e+001  2.299304e+001 -3.794837e+000  1.076961e+002
5.4923125000e+009 -9.279534e+000  1.561352e+002 -3.389283e+001  1.156170e+002  2.275540e+001  2.154519e+001 -3.645405e+000  1.075499e+002
5.4924375000e+009 -9.348745e+000  1.570324e+002 -3.383553e+001  1.076055e+002  2.267772e+001  2.183210e+001 -3.747757e+000  1.058169e+002
5.4925625000e+009 -9.137463e+000  1.562053e+002 -3.423000e+001  1.086093e+002  2.271285e+001  2.258338e+001 -3.900781e+000  1.063819e+002
5.4926875000e+009 -9.272458e+000  1.562583e+002 -3.411850e+001  1.089743e+002  2.272215e+001  2.129660e+001 -3.793385e+000  1.057412e+002
5.4928125000e+009 -9.393657e+000  1.560391e+002 -3.385115e+001  1.051098e+002  2.274648e+001  2.133058e+001 -3.814816e+000  1.051596e+002
5.4929375000e+009 -9.153626e+000  1.552936e+002 -3.410559e+001  1.135758e+002  2.263336e+001  2.185213e+001 -4.002637e+000  1.057905e+002
5.4930625000e+009 -9.320369e+000  1.546528e+002 -3.341141e+001  1.095761e+002  2.276812e+001  2.121194e+001 -3.821593e+000  1.057148e+002
5.4931875000e+009 -9.351375e+000  1.556539e+002 -3.376439e+001  1.041941e+002  2.267877e+001  2.083673e+001 -3.901829e+000  1.038058e+002
5.4933125000e+009 -9.369060e+000  1.546963e+002 -3.391792e+001  1.045070e+002  2.268164e+001  2.125324e+001 -4.039879e+000  1.037432e+002
5.4934375000e+009 -9.343629e+000  1.544377e+002 -3.393420e+001  1.094752e+002  2.282085e+001  2.044958e+001 -3.942489e+000  1.050243e+002
5.4935625000e+009 -9.378978e+000  1.548214e+002 -3.332777e+001  1.050905e+002  2.275393e+001  2.035019e+001 -3.911347e+000  1.036751e+002
5.4936875000e+009 -9.302526e+000  1.543204e+002 -3.397854e+001  1.078560e+002  2.269564e+001  2.016705e+001 -4.047977e+000  1.033811e+002
5.4938125000e+009 -9.216724e+000  1.553804e+002 -3.461946e+001  1.068818e+002  2.274231e+001  1.993799e+001 -4.158365e+000  1.032987e+002
5.4939375000e+009 -9.384684e+000  1.541772e+002 -3.388171e+001  1.050542e+002  2.270382e+001  1.951693e+001 -4.056779e+000  1.025339e+002
5.4940625000e+009 -9.434946e+000  1.539039e+002 -3.485329e+001  1.005862e+002  2.273257e+001  1.914617e+001 -4.177042e+000  1.016171e+002
5.4941875000e+009 -9.270877e+000  1.538081e+002 -3.450804e+001  1.048388e+002  2.277986e+001  1.919254e+001 -4.204446e+000  1.022897e+002
5.4943125000e+009 -9.181992e+000  1.540547e+002 -3.462469e+001  1.075038e+002  2.263126e+001  1.903425e+001 -4.311864e+000  1.014776e+002
5.4944375000e+009 -9.291169e+000  1.535119e+002 -3.448112e+001  1.021574e+002  2.273459e+001  1.889930e+001 -4.246730e+000  1.009498e+002
5.4945625000e+009 -9.322474e+000  1.536579e+002 -3.381217e+001  1.030782e+002  2.269398e+001  1.852628e+001 -4.230147e+000  1.006419e+002
5.4946875000e+009 -9.341419e+000  1.531563e+002 -3.459396e+001  1.040712e+002  2.281866e+001  1.852950e+001 -4.319561e+000  1.014959e+002
5.4948125000e+009 -9.359226e+000  1.520505e+002 -3.421188e+001  1.068652e+002  2.268308e+001  1.812944e+001 -4.267414e+000  1.003226e+002
5.4949375000e+009 -9.349517e+000  1.526561e+002 -3.414174e+001  1.032393e+002  2.270505e+001  1.816991e+001 -4.381718e+000  9.997393e+001
5.4950625000e+009 -9.294846e+000  1.532999e+002 -3.465685e+001  1.032952e+002  2.268639e+001  1.780200e+001 -4.406587e+000  9.957411e+001
5.4951875000e+009 -9.500016e+000  1.506530e+002 -3.338716e+001  1.042110e+002  2.254384e+001  1.793842e+001 -4.330451e+000  9.838535e+001
5.4953125000e+009 -9.451586e+000  1.519059e+002 -3.395249e+001  1.016594e+002  2.265438e+001  1.756802e+001 -4.440820e+000  9.821335e+001
5.4954375000e+009 -9.213507e+000  1.514723e+002 -3.403453e+001  1.090743e+002  2.257621e+001  1.736141e+001 -4.456235e+000  9.879976e+001
5.4955625000e+009 -9.444999e+000  1.514719e+002 -3.398837e+001  1.014827e+002  2.262757e+001  1.695176e+001 -4.433030e+000  9.722936e+001
5.4956875000e+009 -9.417912e+000  1.505930e+002 -3.381202e+001  1.005376e+002  2.266054e+001  1.703729e+001 -4.490932e+000  9.703742e+001
5.4958125000e+009 -9.337932e+000  1.509159e+002 -3.457169e+001  1.027760e+002  2.270639e+001  1.705508e+001 -4.668164e+000  9.780399e+001
5.4959375000e+009 -9.539598e+000  1.507111e+002 -3.403378e+001  9.316927e+001  2.260029e+001  1.683901e+001 -4.615796e+000  9.517602e+001
5.4960625000e+009 -9.537543e+000  1.507694e+002 -3.425380e+001  1.002486e+002  2.276726e+001  1.642928e+001 -4.627065e+000  9.708571e+001
5.4961875000e+009 -9.466112e+000  1.503245e+002 -3.433295e+001  9.984361e+001  2.277368e+001  1.634952e+001 -4.669825e+000  9.660666e+001
5.4963125000e+009 -9.558733e+000  1.495685e+002 -3.427616e+001  1.039165e+002  2.262963e+001  1.597963e+001 -4.670329e+000  9.569173e+001
5.4964375000e+009 -9.593924e+000  1.500910e+002 -3.342208e+001  9.669408e+001  2.271086e+001  1.547798e+001 -4.486072e+000  9.495868e+001
5.4965625000e+009 -9.425821e+000  1.502708e+002 -3.506444e+001  9.771208e+001  2.271492e+001  1.542864e+001 -4.803766e+000  9.526703e+001
5.4966875000e+009 -9.469302e+000  1.498389e+002 -3.405497e+001  9.647545e+001  2.264017e+001  1.529701e+001 -4.712836e+000  9.395793e+001
5.4968125000e+009 -9.415663e+000  1.501028e+002 -3.428955e+001  9.670161e+001  2.266847e+001  1.529662e+001 -4.849720e+000  9.403664e+001
5.4969375000e+009 -9.417915e+000  1.502306e+002 -3.462714e+001  9.523728e+001  2.267929e+001  1.494303e+001 -4.866760e+000  9.387745e+001
5.4970625000e+009 -9.747459e+000  1.480307e+002 -3.357878e+001  9.554385e+001  2.262444e+001  1.458052e+001 -4.661575e+000  9.216367e+001
5.4971875000e+009 -9.610429e+000  1.471793e+002 -3.349972e+001  9.896488e+001  2.271025e+001  1.476118e+001 -4.758604e+000  9.326211e+001
5.4973125000e+009 -9.657924e+000  1.493085e+002 -3.369092e+001  9.373254e+001  2.268495e+001  1.429883e+001 -4.830769e+000  9.216043e+001
5.4974375000e+009 -9.819263e+000  1.463581e+002 -3.397175e+001  9.857695e+001  2.271604e+001  1.397732e+001 -4.785611e+000  9.256795e+001
5.4975625000e+009 -9.738901e+000  1.487050e+002 -3.464544e+001  9.463579e+001  2.272097e+001  1.393987e+001 -5.037373e+000  9.218636e+001
5.4976875000e+009 -9.633455e+000  1.483996e+002 -3.488953e+001  9.154679e+001  2.268674e+001  1.393388e+001 -5.187820e+000  9.104156e+001
5.4978125000e+009 -9.698737e+000  1.473517e+002 -3.404322e+001  9.548228e+001  2.260723e+001  1.322628e+001 -4.853498e+000  9.019855e+001
5.4979375000e+009 -9.829348e+000  1.444262e+002 -3.360083e+001  9.462646e+001  2.274029e+001  1.337160e+001 -4.866069e+000  9.026997e+001
5.4980625000e+009 -9.603200e+000  1.463452e+002 -3.456212e+001  9.975922e+001  2.270713e+001  1.345374e+001 -5.137391e+000  9.181622e+001
5.4981875000e+009 -9.834393e+000  1.470970e+002 -3.415273e+001  8.980974e+001  2.271782e+001  1.295733e+001 -5.084225e+000  8.909507e+001
5.4983125000e+009 -9.946425e+000  1.465080e+002 -3.384591e+001  8.959833e+001  2.273372e+001  1.257159e+001 -4.972394e+000  8.905831e+001
5.4984375000e+009 -9.492247e+000  1.456122e+002 -3.446645e+001  9.827591e+001  2.269400e+001  1.289364e+001 -5.236375e+000  8.974134e+001
5.4985625000e+009 -9.636975e+000  1.460980e+002 -3.477913e+001  9.238117e+001  2.271069e+001  1.256903e+001 -5.211473e+000  8.889625e+001
5.4986875000e+009 -9.421486e+000  1.441164e+002 -3.439947e+001  9.696759e+001  2.269195e+001  1.249224e+001 -5.302611e+000  8.895420e+001
5.4988125000e+009 -9.621391e+000  1.456204e+002 -3.432536e+001  9.798906e+001  2.269727e+001  1.203961e+001 -5.192266e+000  8.873542e+001
5.4989375000e+009 -9.670196e+000  1.451063e+002 -3.450844e+001  8.915668e+001  2.271111e+001  1.188764e+001 -5.250240e+000  8.627780e+001
5.4990625000e+009 -9.897593e+000  1.451370e+002 -3.520941e+001  8.951009e+001  2.266861e+001  1.133541e+001 -5.386809e+000  8.665039e+001
5.4991875000e+009 -9.751904e+000  1.465711e+002 -3.445113e+001  9.357466e+001  2.269267e+001  1.135331e+001 -5.368208e+000  8.712902e+001
5.4993125000e+009 -9.748941e+000  1.433100e+002 -3.452518e+001  9.202028e+001  2.271077e+001  1.120594e+001 -5.253879e+000  8.626988e+001
5.4994375000e+009 -9.789062e+000  1.462029e+002 -3.455482e+001  9.021658e+001  2.268833e+001  1.078985e+001 -5.320543e+000  8.492398e+001
5.4995625000e+009 -9.792912e+000  1.440858e+002 -3.505407e+001  9.184711e+001  2.268018e+001  1.063725e+001 -5.515582e+000  8.594520e+001
5.4996875000e+009 -1.018672e+001  1.441213e+002 -3.402814e+001  8.536445e+001  2.272217e+001  1.047477e+001 -5.331730e+000  8.377174e+001
5.4998125000e+009 -9.731530e+000  1.437088e+002 -3.491392e+001  9.124979e+001  2.270257e+001  1.065473e+001 -5.505913e+000  8.496104e+001
5.4999375000e+009 -9.833899e+000  1.428973e+002 -3.518407e+001  9.054583e+001  2.273363e+001  1.030069e+001 -5.560598e+000  8.444516e+001
5.5000625000e+009 -9.829778e+000  1.423170e+002 -3.443558e+001  8.998339e+001  2.270439e+001  1.019464e+001 -5.450400e+000  8.339507e+001
5.5001875000e+009 -9.966838e+000  1.433054e+002 -3.435058e+001  8.825693e+001  2.271588e+001  9.836810e+000 -5.616102e+000  8.322847e+001
5.5003125000e+009 -9.924911e+000  1.457676e+002 -3.446802e+001  8.312814e+001  2.265886e+001  9.619147e+000 -5.557199e+000  8.195692e+001
5.5004375000e+009 -1.015382e+001  1.433015e+002 -3.439774e+001  8.149731e+001  2.271291e+001  9.461073e+000 -5.606351e+000  8.085174e+001
5.5005625000e+009 -1.002977e+001  1.415127e+002 -3.478968e+001  8.731102e+001  2.274484e+001  9.282063e+000 -5.689059e+000  8.183922e+001
5.5006875000e+009 -9.800951e+000  1.399669e+002 -3.520349e+001  9.576613e+001  2.274781e+001  9.236901e+000 -5.822955e+000  8.335324e+001
5.5008125000e+009 -1.009397e+001  1.405119e+002 -3.449022e+001  8.654295e+001  2.274784e+001  8.973052e+000 -5.718549e+000  8.090334e+001
5.5009375000e+009 -1.002614e+001  1.415268e+002 -3.477156e+001  9.086018e+001  2.270580e+001  8.407557e+000 -5.810354e+000  8.146210e+001
5.5010625000e+009 -9.978731e+000  1.426035e+002 -3.543586e+001  8.898828e+001  2.272986e+001  8.616928e+000 -5.830227e+000  8.058360e+001
5.5011875000e+009 -9.945190e+000  1.391318e+002 -3.398323e+001  8.595164e+001  2.276955e+001  8.496964e+000 -5.627406e+000  7.926118e+001
5.5013125000e+009 -9.981321e+000  1.405079e+002 -3.513476e+001  9.001762e+001  2.271484e+001  8.060862e+000 -5.980551e+000  8.032777e+001
5.5014375000e+009 -1.024772e+001  1.416666e+002 -3.486654e+001  8.528448e+001  2.276594e+001  7.689335e+000 -5.862960e+000  7.835532e+001
5.5015625000e+009 -9.940909e+000  1.383399e+002 -3.474861e+001  9.154136e+001  2.277821e+001  7.878067e+000 -5.822824e+000  7.932156e+001
5.5016875000e+009 -1.022331e+001  1.414719e+002 -3.473171e+001  8.152926e+001  2.273781e+001  7.664147e+000 -5.778226e+000  7.732771e+001
5.5018125000e+009 -1.025691e+001  1.428001e+002 -3.492367e+001  8.617751e+001  2.266233e+001  6.987319e+000 -5.992285e+000  7.842194e+001
5.5019375000e+009 -9.918659e+000  1.392822e+002 -3.499958e+001  8.746083e+001  2.278669e+001  7.324968e+000 -5.850758e+000  7.732231e+001
5.5020625000e+009 -1.009264e+001  1.378019e+002 -3.556628e+001  8.778693e+001  2.280365e+001  7.173178e+000 -6.140695e+000  7.742568e+001
5.5021875000e+009 -9.982488e+000  1.394889e+002 -3.536250e+001  8.757428e+001  2.278071e+001  6.957657e+000 -6.004745e+000  7.690971e+001
5.5023125000e+009 -1.018619e+001  1.395039e+002 -3.506725e+001  8.534495e+001  2.276030e+001  6.896670e+000 -5.904800e+000  7.604871e+001
5.5024375000e+009 -1.018585e+001  1.373824e+002 -3.484685e+001  7.859291e+001  2.277293e+001  7.005988e+000 -5.943959e+000  7.481730e+001
5.5025625000e+009 -1.006011e+001  1.394817e+002 -3.453452e+001  8.878530e+001  2.277300e+001  6.132829e+000 -5.998363e+000  7.568876e+001
5.5026875000e+009 -1.013956e+001  1.368842e+002 -3.503796e+001  8.090459e+001  2.280166e+001  5.923805e+000 -6.103220e+000  7.376577e+001
5.5028125000e+009 -1.022895e+001  1.374563e+002 -3.483304e+001  8.356626e+001  2.280301e+001  5.938916e+000 -6.132935e+000  7.370551e+001
5.5029375000e+009 -1.030217e+001  1.391807e+002 -3.529018e+001  8.358249e+001  2.278333e+001  6.185598e+000 -6.001929e+000  7.385680e+001
5.5030625000e+009 -1.016551e+001  1.362995e+002 -3.489382e+001  8.487521e+001  2.277490e+001  5.932704e+000 -6.014767e+000  7.373660e+001
5.5031875000e+009 -1.032419e+001  1.380219e+002 -3.513380e+001  8.085520e+001  2.281487e+001  5.219062e+000 -6.176568e+000  7.237266e+001
5.5033125000e+009 -1.027487e+001  1.379924e+002 -3.579739e+001  8.707251e+001  2.277492e+001  4.905128e+000 -6.357569e+000  7.334985e+001
5.5034375000e+009 -1.007332e+001  1.369929e+002 -3.491981e+001  8.538773e+001  2.277070e+001  5.283274e+000 -6.110804e+000  7.252924e+001
5.5035625000e+009 -1.022074e+001  1.351873e+002 -3.529543e+001  8.423669e+001  2.285723e+001  5.000727e+000 -6.180873e+000  7.148561e+001
5.5036875000e+009 -1.036475e+001  1.344877e+002 -3.502081e+001  8.072974e+001  2.283571e+001  4.541979e+000 -6.213217e+000  7.072729e+001
5.5038125000e+009 -1.052373e+001  1.378368e+002 -3.452813e+001  7.926114e+001  2.277670e+001  4.228998e+000 -6.091206e+000  6.992167e+001
5.5039375000e+009 -1.021242e+001  1.349392e+002 -3.493675e+001  8.536656e+001  2.282356e+001  4.178808e+000 -6.231862e+000  7.082211e+001
5.5040625000e+009 -1.066229e+001  1.396002e+002 -3.478917e+001  8.213821e+001  2.275218e+001  3.486165e+000 -6.238306e+000  6.964781e+001
5.5041875000e+009 -1.030853e+001  1.348513e+002 -3.486273e+001  8.510045e+001  2.285625e+001  3.714608e+000 -6.225359e+000  6.952335e+001
5.5043125000e+009 -1.029061e+001  1.335094e+002 -3.482768e+001  8.299457e+001  2.283954e+001  3.781844e+000 -6.200305e+000  6.900625e+001
5.5044375000e+009 -1.028410e+001  1.362112e+002 -3.565083e+001  7.685159e+001  2.280859e+001  3.010144e+000 -6.511001e+000  6.759689e+001
5.5045625000e+009 -1.030119e+001  1.337071e+002 -3.559437e+001  8.257465e+001  2.282872e+001  3.638603e+000 -6.292387e+000  6.859975e+001
5.5046875000e+009 -1.026561e+001  1.353272e+002 -3.593570e+001  7.944115e+001  2.280466e+001  3.239897e+000 -6.469590e+000  6.774607e+001
5.5048125000e+009 -1.059787e+001  1.384503e+002 -3.499200e+001  7.532153e+001  2.273378e+001  2.479956e+000 -6.393693e+000  6.612529e+001
5.5049375000e+009 -1.056465e+001  1.344366e+002 -3.533530e+001  8.114593e+001  2.284517e+001  2.848104e+000 -6.282578e+000  6.703091e+001
5.5050625000e+009 -1.041206e+001  1.331069e+002 -3.530403e+001  8.248788e+001  2.284643e+001  2.421517e+000 -6.373425e+000  6.673377e+001
5.5051875000e+009 -1.052608e+001  1.340991e+002 -3.608600e+001  8.209532e+001  2.273839e+001  1.602190e+000 -6.651666e+000  6.672347e+001
5.5053125000e+009 -1.059148e+001  1.320815e+002 -3.496334e+001  8.049748e+001  2.280489e+001  2.294972e+000 -6.310971e+000  6.585278e+001
5.5054375000e+009 -1.040246e+001  1.329111e+002 -3.499076e+001  7.938488e+001  2.285530e+001  1.928075e+000 -6.296297e+000  6.484286e+001
5.5055625000e+009 -1.081850e+001  1.349636e+002 -3.529688e+001  7.398015e+001  2.276517e+001  2.100731e+000 -6.373357e+000  6.417839e+001
5.5056875000e+009 -1.066303e+001  1.327794e+002 -3.427417e+001  7.739396e+001  2.282749e+001  1.423800e+000 -6.213003e+000  6.338407e+001
5.5058125000e+009 -1.006017e+001  1.310664e+002 -3.600456e+001  7.567360e+001  2.286265e+001  1.824450e+000 -6.523285e+000  6.350612e+001
5.5059375000e+009 -1.075901e+001  1.354815e+002 -3.605571e+001  7.688116e+001  2.281364e+001  5.646688e-001 -6.600440e+000  6.313628e+001
5.5060625000e+009 -1.077884e+001  1.322717e+002 -3.511563e+001  7.830919e+001  2.284072e+001  5.491669e-001 -6.380054e+000  6.248946e+001
5.5061875000e+009 -1.046760e+001  1.311375e+002 -3.576719e+001  8.284807e+001  2.286240e+001  1.374934e+000 -6.353708e+000  6.368081e+001
5.5063125000e+009 -1.102985e+001  1.342042e+002 -3.501122e+001  7.640733e+001  2.284573e+001  6.542426e-001 -6.319139e+000  6.188644e+001
5.5064375000e+009 -1.053503e+001  1.317074e+002 -3.585480e+001  7.188773e+001  2.285633e+001  4.264148e-001 -6.552576e+000  6.070795e+001
5.5065625000e+009 -1.048100e+001  1.314184e+002 -3.599227e+001  7.276717e+001  2.283007e+001  8.034518e-002 -6.618573e+000  6.070210e+001
5.5066875000e+009 -1.086828e+001  1.318420e+002 -3.535125e+001  7.626923e+001  2.284359e+001 -7.112505e-001 -6.516260e+000  6.042828e+001
5.5068125000e+009 -1.067393e+001  1.308754e+002 -3.619625e+001  7.254025e+001  2.298194e+001 -9.008446e-001 -6.653975e+000  5.904917e+001
5.5069375000e+009 -1.064444e+001  1.305578e+002 -3.594709e+001  7.530826e+001  2.281661e+001 -4.129459e-001 -6.588072e+000  6.011583e+001
5.5070625000e+009 -1.102808e+001  1.316940e+002 -3.564387e+001  7.929879e+001  2.294460e+001 -1.977108e+000 -6.546241e+000  5.902008e+001
5.5071875000e+009 -1.073042e+001  1.316564e+002 -3.475931e+001  7.261821e+001  2.281570e+001 -5.547754e-001 -6.297122e+000  5.842596e+001
5.5073125000e+009 -1.075719e+001  1.306733e+002 -3.582726e+001  7.187304e+001  2.283938e+001 -1.360860e+000 -6.596752e+000  5.796404e+001
5.5074375000e+009 -1.096510e+001  1.301739e+002 -3.568784e+001  7.622430e+001  2.289749e+001 -2.020302e+000 -6.488498e+000  5.782946e+001
5.5075625000e+009 -1.043425e+001  1.303337e+002 -3.606330e+001  7.017148e+001  2.280795e+001 -9.525902e-001 -6.569209e+000  5.758630e+001
5.5076875000e+009 -1.070091e+001  1.293780e+002 -3.618080e+001  7.570102e+001  2.295479e+001 -1.778901e+000 -6.543034e+000  5.766227e+001
5.5078125000e+009 -1.121213e+001  1.299420e+002 -3.483417e+001  7.362199e+001  2.293606e+001 -2.952202e+000 -6.420898e+000  5.594549e+001
5.5079375000e+009 -1.063505e+001  1.298266e+002 -3.557930e+001  7.621051e+001  2.278767e+001 -1.976726e+000 -6.435527e+000  5.712160e+001
5.5080625000e+009 -1.066243e+001  1.285865e+002 -3.559509e+001  7.685572e+001  2.296426e+001 -2.379850e+000 -6.435257e+000  5.626364e+001
5.5081875000e+009 -1.076408e+001  1.286612e+002 -3.578915e+001  7.174491e+001  2.282550e+001 -2.315433e+000 -6.527570e+000  5.575412e+001
5.5083125000e+009 -1.092063e+001  1.277281e+002 -3.521188e+001  7.321273e+001  2.294282e+001 -2.503677e+000 -6.361856e+000  5.512186e+001
5.5084375000e+009 -1.077334e+001  1.283490e+002 -3.567027e+001  7.233778e+001  2.278573e+001 -2.318351e+000 -6.485258e+000  5.561882e+001
5.5085625000e+009 -1.109774e+001  1.266966e+002 -3.593456e+001  7.550249e+001  2.298265e+001 -3.589236e+000 -6.502733e+000  5.477436e+001
5.5086875000e+009 -1.084525e+001  1.291833e+002 -3.560384e+001  7.122598e+001  2.295644e+001 -3.565015e+000 -6.457048e+000  5.331956e+001
5.5088125000e+009 -1.084321e+001  1.267276e+002 -3.559167e+001  7.126551e+001  2.294010e+001 -3.205598e+000 -6.370110e+000  5.361995e+001
5.5089375000e+009 -1.103866e+001  1.270419e+002 -3.564067e+001  7.268111e+001  2.299928e+001 -4.252323e+000 -6.433813e+000  5.306659e+001
5.5090625000e+009 -1.104298e+001  1.265691e+002 -3.602127e+001  7.525486e+001  2.293495e+001 -4.107010e+000 -6.483246e+000  5.380793e+001
5.5091875000e+009 -1.075357e+001  1.266669e+002 -3.523086e+001  6.967332e+001  2.297159e+001 -4.017886e+000 -6.323807e+000  5.170067e+001
5.5093125000e+009 -1.094865e+001  1.261223e+002 -3.626376e+001  7.499929e+001  2.296710e+001 -4.447749e+000 -6.521109e+000  5.321880e+001
5.5094375000e+009 -1.094307e+001  1.259621e+002 -3.570567e+001  7.281171e+001  2.293607e+001 -4.611872e+000 -6.363370e+000  5.224289e+001
5.5095625000e+009 -1.088398e+001  1.246859e+002 -3.614159e+001  7.539484e+001  2.301044e+001 -4.233262e+000 -6.380949e+000  5.271185e+001
5.5096875000e+009 -1.107162e+001  1.248781e+002 -3.608645e+001  7.841801e+001  2.297157e+001 -5.454921e+000 -6.436091e+000  5.245066e+001
5.5098125000e+009 -1.100131e+001  1.248356e+002 -3.604340e+001  6.936525e+001  2.294987e+001 -4.730348e+000 -6.430656e+000  5.110987e+001
5.5099375000e+009 -1.085106e+001  1.247259e+002 -3.606699e+001  7.540376e+001  2.287966e+001 -5.107087e+000 -6.437645e+000  5.166010e+001
5.5100625000e+009 -1.104854e+001  1.248691e+002 -3.601326e+001  6.826949e+001  2.303464e+001 -5.979130e+000 -6.453890e+000  4.956013e+001
5.5101875000e+009 -1.092658e+001  1.237180e+002 -3.626976e+001  7.374149e+001  2.298114e+001 -5.537960e+000 -6.466203e+000  5.073955e+001
5.5103125000e+009 -1.104951e+001  1.242258e+002 -3.594761e+001  7.024413e+001  2.311452e+001 -5.898427e+000 -6.344144e+000  4.918216e+001
5.5104375000e+009 -1.096281e+001  1.244039e+002 -3.585743e+001  7.376764e+001  2.309750e+001 -6.157890e+000 -6.346809e+000  4.954479e+001
5.5105625000e+009 -1.103974e+001  1.235670e+002 -3.599986e+001  7.166327e+001  2.298160e+001 -6.222459e+000 -6.336330e+000  4.935820e+001
5.5106875000e+009 -1.084710e+001  1.241014e+002 -3.659177e+001  6.789397e+001  2.305219e+001 -6.749382e+000 -6.494812e+000  4.852157e+001
5.5108125000e+009 -1.105501e+001  1.228025e+002 -3.652316e+001  6.882980e+001  2.308471e+001 -6.567157e+000 -6.467319e+000  4.832305e+001
5.5109375000e+009 -1.094900e+001  1.241440e+002 -3.647546e+001  7.259453e+001  2.290184e+001 -6.993934e+000 -6.443976e+000  4.903578e+001
5.5110625000e+009 -1.105854e+001  1.230584e+002 -3.596315e+001  7.099732e+001  2.292761e+001 -6.881862e+000 -6.335972e+000  4.824792e+001
5.5111875000e+009 -1.111261e+001  1.222287e+002 -3.584633e+001  7.093756e+001  2.319929e+001 -7.266031e+000 -6.260981e+000  4.698378e+001
5.5113125000e+009 -1.099296e+001  1.223096e+002 -3.646480e+001  7.179420e+001  2.300412e+001 -7.702798e+000 -6.398521e+000  4.794350e+001
5.5114375000e+009 -1.107717e+001  1.220396e+002 -3.621920e+001  6.805418e+001  2.304271e+001 -7.642852e+000 -6.367477e+000  4.668854e+001
5.5115625000e+009 -1.114972e+001  1.219752e+002 -3.670295e+001  6.987123e+001  2.312730e+001 -7.979859e+000 -6.392345e+000  4.667913e+001
5.5116875000e+009 -1.104585e+001  1.215905e+002 -3.616921e+001  7.129585e+001  2.291123e+001 -8.107180e+000 -6.345865e+000  4.738719e+001
5.5118125000e+009 -1.106523e+001  1.216331e+002 -3.680516e+001  6.774969e+001  2.305229e+001 -8.388962e+000 -6.420877e+000  4.586485e+001
5.5119375000e+009 -1.103138e+001  1.210712e+002 -3.677289e+001  7.060115e+001  2.320505e+001 -8.305267e+000 -6.325090e+000  4.587256e+001
5.5120625000e+009 -1.108519e+001  1.208794e+002 -3.659915e+001  7.099758e+001  2.311791e+001 -8.506780e+000 -6.271543e+000  4.583202e+001
5.5121875000e+009 -1.104362e+001  1.209162e+002 -3.636403e+001  6.981621e+001  2.305755e+001 -8.677713e+000 -6.290562e+000  4.555301e+001
5.5123125000e+009 -1.104640e+001  1.209798e+002 -3.657660e+001  6.618369e+001  2.316383e+001 -9.246525e+000 -6.347175e+000  4.435981e+001
5.5124375000e+009 -1.109259e+001  1.207285e+002 -3.614931e+001  6.717521e+001  2.316101e+001 -9.417300e+000 -6.190759e+000  4.415520e+001
5.5125625000e+009 -1.112815e+001  1.206707e+002 -3.605669e+001  6.669067e+001  2.314697e+001 -9.458706e+000 -6.267642e+000  4.358639e+001
5.5126875000e+009 -1.102534e+001  1.197550e+002 -3.629794e+001  7.068040e+001  2.310101e+001 -9.856999e+000 -6.253548e+000  4.444392e+001
5.5128125000e+009 -1.102579e+001  1.197322e+002 -3.697382e+001  6.499670e+001  2.318274e+001 -9.630843e+000 -6.332911e+000  4.375579e+001
5.5129375000e+009 -1.102743e+001  1.196747e+002 -3.668471e+001  6.386558e+001  2.314580e+001 -9.825583e+000 -6.298219e+000  4.334603e+001
5.5130625000e+009 -1.104758e+001  1.195710e+002 -3.699524e+001  6.353418e+001  2.315083e+001 -1.034021e+001 -6.371700e+000  4.291130e+001
5.5131875000e+009 -1.111398e+001  1.185581e+002 -3.640812e+001  6.744924e+001  2.311436e+001 -1.041317e+001 -6.207811e+000  4.305936e+001
5.5133125000e+009 -1.114214e+001  1.182337e+002 -3.637500e+001  6.481042e+001  2.312957e+001 -1.023354e+001 -6.207402e+000  4.224043e+001
5.5134375000e+009 -1.110042e+001  1.182364e+002 -3.674017e+001  6.407873e+001  2.316955e+001 -1.073374e+001 -6.318758e+000  4.238583e+001
5.5135625000e+009 -1.106853e+001  1.176393e+002 -3.721922e+001  6.722672e+001  2.311871e+001 -1.068481e+001 -6.321432e+000  4.285180e+001
5.5136875000e+009 -1.110096e+001  1.175454e+002 -3.708011e+001  6.193994e+001  2.308298e+001 -1.117518e+001 -6.412954e+000  4.176636e+001
5.5138125000e+009 -1.119958e+001  1.163521e+002 -3.645320e+001  7.061362e+001  2.322931e+001 -1.148810e+001 -6.173140e+000  4.213354e+001
5.5139375000e+009 -1.119570e+001  1.169176e+002 -3.664255e+001  6.499783e+001  2.317482e+001 -1.160522e+001 -6.268002e+000  4.135502e+001
5.5140625000e+009 -1.113852e+001  1.163605e+002 -3.725966e+001  6.483476e+001  2.312471e+001 -1.172754e+001 -6.331442e+000  4.160796e+001
5.5141875000e+009 -1.113209e+001  1.168465e+002 -3.755390e+001  6.180442e+001  2.321849e+001 -1.176853e+001 -6.398824e+000  4.111510e+001
5.5143125000e+009 -1.116769e+001  1.153249e+002 -3.679737e+001  6.592661e+001  2.323134e+001 -1.223110e+001 -6.213644e+000  4.076755e+001
5.5144375000e+009 -1.113637e+001  1.157798e+002 -3.711156e+001  6.432556e+001  2.314739e+001 -1.241423e+001 -6.277853e+000  4.111969e+001
5.5145625000e+009 -1.121486e+001  1.153743e+002 -3.688081e+001  6.474216e+001  2.326282e+001 -1.259767e+001 -6.258987e+000  4.031892e+001
5.5146875000e+009 -1.117831e+001  1.148698e+002 -3.714514e+001  6.249358e+001  2.321188e+001 -1.288489e+001 -6.251473e+000  4.004255e+001
5.5148125000e+009 -1.113995e+001  1.146933e+002 -3.780174e+001  6.232140e+001  2.319568e+001 -1.321704e+001 -6.379270e+000  4.027267e+001
5.5149375000e+009 -1.120158e+001  1.140473e+002 -3.724049e+001  6.537476e+001  2.328792e+001 -1.307703e+001 -6.269032e+000  3.982481e+001
5.5150625000e+009 -1.121986e+001  1.147379e+002 -3.713762e+001  6.119877e+001  2.323225e+001 -1.339693e+001 -6.304310e+000  3.892250e+001
5.5151875000e+009 -1.123991e+001  1.135044e+002 -3.716249e+001  6.084442e+001  2.320890e+001 -1.382796e+001 -6.328789e+000  3.890405e+001
5.5153125000e+009 -1.124786e+001  1.135966e+002 -3.703168e+001  6.289413e+001  2.325931e+001 -1.390916e+001 -6.257001e+000  3.880154e+001
5.5154375000e+009 -1.129818e+001  1.131059e+002 -3.640511e+001  6.528834e+001  2.321482e+001 -1.436124e+001 -6.108203e+000  3.855653e+001
5.5155625000e+009 -1.123519e+001  1.125968e+002 -3.706258e+001  6.456217e+001  2.327499e+001 -1.432353e+001 -6.184517e+000  3.852792e+001
5.5156875000e+009 -1.116383e+001  1.121636e+002 -3.803573e+001  6.700554e+001  2.332101e+001 -1.439857e+001 -6.357595e+000  3.926444e+001
5.5158125000e+009 -1.119155e+001  1.115602e+002 -3.833993e+001  6.595603e+001  2.326876e+001 -1.500532e+001 -6.385987e+000  3.901465e+001
5.5159375000e+009 -1.124850e+001  1.113569e+002 -3.697622e+001  6.262593e+001  2.330180e+001 -1.507174e+001 -6.203678e+000  3.756791e+001
5.5160625000e+009 -1.124356e+001  1.113810e+002 -3.757356e+001  6.287654e+001  2.332654e+001 -1.492783e+001 -6.291294e+000  3.804695e+001
5.5161875000e+009 -1.124819e+001  1.114644e+002 -3.711017e+001  6.375824e+001  2.329113e+001 -1.539513e+001 -6.211619e+000  3.749730e+001
5.5163125000e+009 -1.126821e+001  1.107846e+002 -3.685939e+001  6.245526e+001  2.327601e+001 -1.587908e+001 -6.062921e+000  3.719270e+001
5.5164375000e+009 -1.118974e+001  1.109460e+002 -3.793045e+001  6.251274e+001  2.334930e+001 -1.547821e+001 -6.331384e+000  3.741163e+001
5.5165625000e+009 -1.117726e+001  1.105759e+002 -3.748523e+001  6.102021e+001  2.329832e+001 -1.598997e+001 -6.231059e+000  3.686446e+001
5.5166875000e+009 -1.114966e+001  1.097508e+002 -3.780243e+001  6.542477e+001  2.331763e+001 -1.618936e+001 -6.169609e+000  3.760107e+001
5.5168125000e+009 -1.105709e+001  1.097524e+002 -3.823207e+001  6.100296e+001  2.334365e+001 -1.615846e+001 -6.394868e+000  3.734666e+001
5.5169375000e+009 -1.103450e+001  1.096632e+002 -3.847733e+001  6.233664e+001  2.334292e+001 -1.634391e+001 -6.284387e+000  3.697030e+001
5.5170625000e+009 -1.118369e+001  1.093544e+002 -3.747014e+001  6.283668e+001  2.332709e+001 -1.689330e+001 -6.187367e+000  3.657311e+001
5.5171875000e+009 -1.122798e+001  1.092909e+002 -3.753312e+001  5.948495e+001  2.335535e+001 -1.705060e+001 -6.233714e+000  3.569159e+001
5.5173125000e+009 -1.122369e+001  1.094582e+002 -3.804393e+001  6.050303e+001  2.335345e+001 -1.720259e+001 -6.262772e+000  3.593420e+001
5.5174375000e+009 -1.118529e+001  1.075390e+002 -3.741922e+001  6.594454e+001  2.339168e+001 -1.743117e+001 -5.964787e+000  3.610377e+001
5.5175625000e+009 -1.118757e+001  1.082763e+002 -3.774952e+001  6.153862e+001  2.338028e+001 -1.773400e+001 -6.263551e+000  3.546641e+001
5.5176875000e+009 -1.122278e+001  1.086154e+002 -3.786703e+001  5.881619e+001  2.336841e+001 -1.768243e+001 -6.244024e+000  3.535416e+001
5.5178125000e+009 -1.110068e+001  1.065001e+002 -3.787497e+001  6.210734e+001  2.340168e+001 -1.803358e+001 -6.188277e+000  3.551981e+001
5.5179375000e+009 -1.114918e+001  1.080511e+002 -3.835863e+001  6.184595e+001  2.337729e+001 -1.849101e+001 -6.345189e+000  3.515720e+001
5.5180625000e+009 -1.108244e+001  1.070032e+002 -3.755998e+001  6.208363e+001  2.340411e+001 -1.832828e+001 -6.187090e+000  3.499622e+001
5.5181875000e+009 -1.117509e+001  1.061618e+002 -3.767188e+001  6.620845e+001  2.343326e+001 -1.887941e+001 -5.975757e+000  3.502574e+001
5.5183125000e+009 -1.101390e+001  1.056475e+002 -3.815696e+001  6.523714e+001  2.341984e+001 -1.891590e+001 -6.282952e+000  3.546489e+001
5.5184375000e+009 -1.115061e+001  1.067233e+002 -3.755856e+001  6.106438e+001  2.340141e+001 -1.915108e+001 -6.138685e+000  3.418201e+001
5.5185625000e+009 -1.105245e+001  1.058964e+002 -3.809037e+001  5.987569e+001  2.344245e+001 -1.917496e+001 -6.168533e+000  3.450691e+001
5.5186875000e+009 -1.123557e+001  1.060809e+002 -3.781992e+001  5.934021e+001  2.340113e+001 -1.955053e+001 -6.173498e+000  3.409654e+001
5.5188125000e+009 -1.121078e+001  1.060236e+002 -3.768495e+001  5.896561e+001  2.338714e+001 -1.946278e+001 -6.154688e+000  3.455888e+001
5.5189375000e+009 -1.095802e+001  1.042445e+002 -3.837754e+001  6.016063e+001  2.346416e+001 -1.967126e+001 -6.145512e+000  3.432362e+001
5.5190625000e+009 -1.103859e+001  1.048270e+002 -3.784486e+001  6.183164e+001  2.346039e+001 -1.992831e+001 -6.039085e+000  3.400655e+001
5.5191875000e+009 -1.104146e+001  1.057327e+002 -3.799472e+001  5.622008e+001  2.342748e+001 -2.030915e+001 -6.213878e+000  3.346936e+001
5.5193125000e+009 -1.105225e+001  1.043182e+002 -3.859520e+001  6.361821e+001  2.344350e+001 -2.048899e+001 -6.134930e+000  3.475165e+001
5.5194375000e+009 -1.121134e+001  1.046594e+002 -3.820144e+001  6.166512e+001  2.345423e+001 -2.105616e+001 -6.219372e+000  3.358475e+001
5.5195625000e+009 -1.109794e+001  1.040227e+002 -3.795318e+001  5.671713e+001  2.350559e+001 -2.079793e+001 -6.175225e+000  3.286395e+001
5.5196875000e+009 -1.085038e+001  1.031960e+002 -3.799917e+001  6.153695e+001  2.356117e+001 -2.111764e+001 -6.023447e+000  3.271963e+001
5.5198125000e+009 -1.103553e+001  1.035832e+002 -3.826398e+001  5.996663e+001  2.352506e+001 -2.172620e+001 -6.195782e+000  3.223788e+001
5.5199375000e+009 -1.106300e+001  1.029395e+002 -3.810015e+001  6.032103e+001  2.351472e+001 -2.220666e+001 -6.296838e+000  3.199269e+001
5.5200625000e+009 -1.089392e+001  1.029176e+002 -3.864294e+001  5.897119e+001  2.356017e+001 -2.152012e+001 -6.118678e+000  3.272378e+001
5.5201875000e+009 -1.093288e+001  1.029446e+002 -3.838062e+001  5.901847e+001  2.356056e+001 -2.245222e+001 -6.270784e+000  3.158495e+001
5.5203125000e+009 -1.109818e+001  1.024848e+002 -3.826085e+001  5.760304e+001  2.353506e+001 -2.215611e+001 -6.098927e+000  3.227057e+001
5.5204375000e+009 -1.086520e+001  1.014566e+002 -3.872894e+001  6.338694e+001  2.359662e+001 -2.192869e+001 -5.983619e+000  3.330368e+001
5.5205625000e+009 -1.097378e+001  1.016693e+002 -3.844744e+001  5.987925e+001  2.357880e+001 -2.260486e+001 -6.080500e+000  3.210205e+001
5.5206875000e+009 -1.102521e+001  1.024725e+002 -3.875560e+001  5.321237e+001  2.351392e+001 -2.289552e+001 -6.351913e+000  3.269266e+001
5.5208125000e+009 -1.081892e+001  1.010704e+002 -3.865554e+001  5.846360e+001  2.358258e+001 -2.256557e+001 -6.005107e+000  3.254594e+001
5.5209375000e+009 -1.097580e+001  1.015142e+002 -3.838016e+001  5.755068e+001  2.361642e+001 -2.372606e+001 -6.190460e+000  3.095127e+001
5.5210625000e+009 -1.102117e+001  1.008603e+002 -3.858533e+001  5.871787e+001  2.358690e+001 -2.294741e+001 -6.060870e+000  3.216393e+001
5.5211875000e+009 -1.083903e+001  1.005816e+002 -3.861587e+001  5.377429e+001  2.358203e+001 -2.372225e+001 -6.185402e+000  3.169129e+001
5.5213125000e+009 -1.084285e+001  9.943118e+001 -3.906153e+001  6.266218e+001  2.358458e+001 -2.358069e+001 -6.045489e+000  3.308606e+001
5.5214375000e+009 -1.086395e+001  1.005280e+002 -3.865562e+001  5.736410e+001  2.361230e+001 -2.413128e+001 -6.115926e+000  3.123330e+001
5.5215625000e+009 -1.073222e+001  1.003264e+002 -3.873394e+001  5.862267e+001  2.356449e+001 -2.366688e+001 -5.996524e+000  3.257328e+001
5.5216875000e+009 -1.075328e+001  1.005513e+002 -3.851731e+001  5.478917e+001  2.363217e+001 -2.480926e+001 -6.281939e+000  3.027979e+001
5.5218125000e+009 -1.098194e+001  9.979574e+001 -3.814716e+001  6.017062e+001  2.361551e+001 -2.442433e+001 -5.926934e+000  3.136035e+001
5.5219375000e+009 -1.075035e+001  9.922205e+001 -3.856755e+001  6.003088e+001  2.361828e+001 -2.456474e+001 -6.015750e+000  3.149186e+001
5.5220625000e+009 -1.070425e+001  9.916451e+001 -3.879948e+001  5.194405e+001  2.369509e+001 -2.502182e+001 -6.135603e+000  3.048156e+001
5.5221875000e+009 -1.085910e+001  9.898914e+001 -3.889411e+001  5.929083e+001  2.362907e+001 -2.465917e+001 -5.930854e+000  3.206205e+001
5.5223125000e+009 -1.050476e+001  9.828787e+001 -3.940037e+001  5.561876e+001  2.368148e+001 -2.495191e+001 -6.089359e+000  3.147750e+001
5.5224375000e+009 -1.080439e+001  9.870988e+001 -3.899376e+001  5.973582e+001  2.369914e+001 -2.592361e+001 -6.044051e+000  3.033039e+001
5.5225625000e+009 -1.081082e+001  9.795116e+001 -3.861485e+001  5.628707e+001  2.370939e+001 -2.600059e+001 -6.135836e+000  2.989089e+001
5.5226875000e+009 -1.057663e+001  9.846023e+001 -3.878299e+001  5.495012e+001  2.370351e+001 -2.514156e+001 -5.936103e+000  3.066838e+001
5.5228125000e+009 -1.066733e+001  9.790584e+001 -3.942089e+001  5.827661e+001  2.373324e+001 -2.663139e+001 -6.175939e+000  3.027212e+001
5.5229375000e+009 -1.084697e+001  9.656755e+001 -3.864120e+001  5.803727e+001  2.365404e+001 -2.693904e+001 -6.135977e+000  3.048565e+001
5.5230625000e+009 -1.063738e+001  9.707447e+001 -3.933550e+001  5.312732e+001  2.369146e+001 -2.625014e+001 -6.031269e+000  3.091700e+001
5.5231875000e+009 -1.057073e+001  9.723150e+001 -3.943993e+001  5.687333e+001  2.380478e+001 -2.711299e+001 -6.130461e+000  2.958748e+001
5.5233125000e+009 -1.079338e+001  9.669927e+001 -3.840390e+001  5.446188e+001  2.370551e+001 -2.742613e+001 -6.150961e+000  2.949289e+001
5.5234375000e+009 -1.063695e+001  9.623322e+001 -3.910936e+001  5.571304e+001  2.374525e+001 -2.713519e+001 -6.035269e+000  3.007227e+001
5.5235625000e+009 -1.073571e+001  9.604154e+001 -3.923691e+001  5.780194e+001  2.384174e+001 -2.785419e+001 -6.052123e+000  2.884386e+001
5.5236875000e+009 -1.069640e+001  9.653409e+001 -3.933941e+001  5.468552e+001  2.376383e+001 -2.824483e+001 -6.208170e+000  2.919662e+001
5.5238125000e+009 -1.051607e+001  9.588173e+001 -3.947546e+001  5.293228e+001  2.378049e+001 -2.795850e+001 -6.173548e+000  2.972649e+001
5.5239375000e+009 -1.073029e+001  9.562485e+001 -3.857886e+001  5.705142e+001  2.372984e+001 -2.809445e+001 -6.009728e+000  2.981716e+001
5.5240625000e+009 -1.064492e+001  9.577527e+001 -3.902342e+001  5.436349e+001  2.383555e+001 -2.953957e+001 -6.347162e+000  2.747400e+001
5.5241875000e+009 -1.047055e+001  9.579047e+001 -3.935025e+001  5.308725e+001  2.365695e+001 -2.790249e+001 -6.053508e+000  3.096994e+001
5.5243125000e+009 -1.051768e+001  9.549265e+001 -3.905244e+001  5.339312e+001  2.393917e+001 -2.918974e+001 -6.105009e+000  2.691871e+001
5.5244375000e+009 -1.055370e+001  9.460171e+001 -3.951607e+001  5.592895e+001  2.378417e+001 -2.930268e+001 -6.159118e+000  2.932283e+001
5.5245625000e+009 -1.049273e+001  9.505981e+001 -3.872952e+001  5.186037e+001  2.383435e+001 -2.952716e+001 -6.160086e+000  2.764990e+001
5.5246875000e+009 -1.053994e+001  9.491525e+001 -3.933967e+001  5.586724e+001  2.378105e+001 -2.941998e+001 -6.088139e+000  2.891422e+001
5.5248125000e+009 -1.064151e+001  9.414233e+001 -3.894881e+001  5.164789e+001  2.386192e+001 -2.959174e+001 -6.002705e+000  2.804095e+001
5.5249375000e+009 -1.051689e+001  9.445586e+001 -3.945914e+001  5.441578e+001  2.380408e+001 -2.990230e+001 -6.129074e+000  2.914063e+001
5.5250625000e+009 -1.040072e+001  9.392033e+001 -3.994792e+001  5.231849e+001  2.383122e+001 -3.046889e+001 -6.272902e+000  2.869178e+001
5.5251875000e+009 -1.052369e+001  9.355199e+001 -3.977719e+001  5.280199e+001  2.381625e+001 -3.067975e+001 -6.187947e+000  2.873890e+001
5.5253125000e+009 -1.037713e+001  9.414368e+001 -3.957357e+001  5.291121e+001  2.381705e+001 -3.065795e+001 -6.162301e+000  2.908438e+001
5.5254375000e+009 -1.042737e+001  9.343987e+001 -3.924839e+001  5.595696e+001  2.386968e+001 -3.097095e+001 -6.130950e+000  2.785323e+001
5.5255625000e+009 -1.038202e+001  9.267814e+001 -4.014691e+001  5.302115e+001  2.387634e+001 -3.107025e+001 -6.145672e+000  2.857649e+001
5.5256875000e+009 -1.026486e+001  9.399146e+001 -3.927655e+001  5.329689e+001  2.372094e+001 -3.111469e+001 -6.296384e+000  2.979494e+001
5.5258125000e+009 -1.026061e+001  9.353640e+001 -3.949303e+001  5.041860e+001  2.385879e+001 -3.104181e+001 -6.107609e+000  2.773461e+001
5.5259375000e+009 -1.036155e+001  9.267425e+001 -3.972011e+001  5.356240e+001  2.378178e+001 -3.186081e+001 -6.335117e+000  2.857829e+001
5.5260625000e+009 -1.016240e+001  9.350332e+001 -4.006002e+001  5.248540e+001  2.363103e+001 -3.157173e+001 -6.311222e+000  3.113186e+001
5.5261875000e+009 -1.024343e+001  9.272055e+001 -3.958131e+001  5.411295e+001  2.394713e+001 -3.246508e+001 -6.324906e+000  2.594868e+001
5.5263125000e+009 -1.024947e+001  9.186514e+001 -4.011152e+001  5.458710e+001  2.392913e+001 -3.267170e+001 -6.316540e+000  2.657166e+001
5.5264375000e+009 -1.017366e+001  9.266669e+001 -3.951592e+001  5.565652e+001  2.381436e+001 -3.234029e+001 -6.203629e+000  2.792973e+001
5.5265625000e+009 -1.020796e+001  9.215929e+001 -3.895222e+001  5.543076e+001  2.395465e+001 -3.272907e+001 -6.168704e+000  2.553425e+001
5.5266875000e+009 -1.011940e+001  9.199831e+001 -4.036359e+001  5.223169e+001  2.394580e+001 -3.335115e+001 -6.442601e+000  2.584233e+001
5.5268125000e+009 -1.013820e+001  9.224673e+001 -3.961563e+001  5.420536e+001  2.371669e+001 -3.325744e+001 -6.452458e+000  2.837727e+001
5.5269375000e+009 -1.017005e+001  9.126498e+001 -3.977719e+001  6.180739e+001  2.383795e+001 -3.318286e+001 -6.201469e+000  2.812544e+001
5.5270625000e+009 -1.011620e+001  9.235104e+001 -3.898823e+001  4.846493e+001  2.378691e+001 -3.358415e+001 -6.487685e+000  2.669053e+001
5.5271875000e+009 -1.002508e+001  9.144331e+001 -3.982101e+001  5.515256e+001  2.381420e+001 -3.385031e+001 -6.386470e+000  2.739109e+001
5.5273125000e+009 -1.004858e+001  9.197633e+001 -3.943939e+001  5.483598e+001  2.388922e+001 -3.386999e+001 -6.414012e+000  2.606839e+001
5.5274375000e+009 -9.979208e+000  9.118164e+001 -4.048500e+001  5.241460e+001  2.396152e+001 -3.411077e+001 -6.278169e+000  2.544261e+001
5.5275625000e+009 -9.907839e+000  9.136530e+001 -4.045321e+001  5.292219e+001  2.385341e+001 -3.440340e+001 -6.480840e+000  2.642206e+001
5.5276875000e+009 -9.959175e+000  9.131372e+001 -3.998410e+001  5.472133e+001  2.382833e+001 -3.443121e+001 -6.405471e+000  2.620596e+001
5.5278125000e+009 -9.955821e+000  9.165302e+001 -3.970397e+001  5.311902e+001  2.399853e+001 -3.477845e+001 -6.288803e+000  2.351316e+001
5.5279375000e+009 -9.907845e+000  9.105161e+001 -4.030684e+001  5.340260e+001  2.390309e+001 -3.491004e+001 -6.385386e+000  2.566673e+001
5.5280625000e+009 -9.824772e+000  9.160655e+001 -3.991547e+001  4.818375e+001  2.381316e+001 -3.518888e+001 -6.680140e+000  2.606084e+001
5.5281875000e+009 -9.882104e+000  9.093118e+001 -3.965570e+001  5.124270e+001  2.384426e+001 -3.535229e+001 -6.495527e+000  2.540302e+001
5.5283125000e+009 -9.800410e+000  9.106577e+001 -4.002540e+001  5.167235e+001  2.383864e+001 -3.545650e+001 -6.523697e+000  2.588735e+001
5.5284375000e+009 -9.816525e+000  9.102756e+001 -3.993473e+001  5.278278e+001  2.387691e+001 -3.574651e+001 -6.433436e+000  2.463927e+001
5.5285625000e+009 -9.768444e+000  9.070094e+001 -4.043967e+001  4.819147e+001  2.390620e+001 -3.572600e+001 -6.514679e+000  2.537722e+001
5.5286875000e+009 -9.746349e+000  9.076683e+001 -4.086926e+001  5.072561e+001  2.377824e+001 -3.645846e+001 -6.838054e+000  2.662805e+001
5.5288125000e+009 -9.712085e+000  9.034035e+001 -4.061333e+001  5.371183e+001  2.392392e+001 -3.669027e+001 -6.664282e+000  2.400203e+001
5.5289375000e+009 -9.727476e+000  9.027587e+001 -4.004527e+001  5.381122e+001  2.395535e+001 -3.661739e+001 -6.503706e+000  2.371173e+001
5.5290625000e+009 -9.695001e+000  9.014471e+001 -4.061504e+001  5.748825e+001  2.380585e+001 -3.694621e+001 -6.622429e+000  2.556217e+001
5.5291875000e+009 -9.662287e+000  9.032347e+001 -4.041432e+001  4.950187e+001  2.386359e+001 -3.682975e+001 -6.543205e+000  2.479656e+001
5.5293125000e+009 -9.687774e+000  9.015250e+001 -4.011299e+001  5.156237e+001  2.384236e+001 -3.742437e+001 -6.655785e+000  2.436670e+001
5.5294375000e+009 -9.604236e+000  8.987283e+001 -4.034634e+001  5.195107e+001  2.383708e+001 -3.734517e+001 -6.667731e+000  2.457144e+001
5.5295625000e+009 -9.579530e+000  8.996872e+001 -4.072836e+001  5.354589e+001  2.385900e+001 -3.779842e+001 -6.808376e+000  2.406176e+001
5.5296875000e+009 -9.570213e+000  8.999493e+001 -4.034991e+001  4.810361e+001  2.387008e+001 -3.808578e+001 -6.942058e+000  2.330195e+001
5.5298125000e+009 -9.588338e+000  8.969340e+001 -4.014308e+001  5.286375e+001  2.381606e+001 -3.823594e+001 -6.831662e+000  2.370111e+001
5.5299375000e+009 -9.537160e+000  8.937045e+001 -4.115632e+001  5.273214e+001  2.384215e+001 -3.832412e+001 -6.701912e+000  2.467367e+001
5.5300625000e+009 -9.505531e+000  8.937198e+001 -4.098264e+001  4.998048e+001  2.387025e+001 -3.866714e+001 -6.763964e+000  2.309921e+001
5.5301875000e+009 -9.522261e+000  8.934795e+001 -4.010968e+001  5.381652e+001  2.385215e+001 -3.876246e+001 -6.736321e+000  2.291935e+001
5.5303125000e+009 -9.500614e+000  8.957892e+001 -3.996692e+001  4.983750e+001  2.374267e+001 -3.940051e+001 -7.186298e+000  2.372157e+001
5.5304375000e+009 -9.470551e+000  8.920378e+001 -4.122947e+001  5.298760e+001  2.389120e+001 -3.927019e+001 -6.829964e+000  2.222484e+001
5.5305625000e+009 -9.441966e+000  8.898025e+001 -4.083343e+001  5.188012e+001  2.377618e+001 -3.944991e+001 -7.043365e+000  2.443931e+001
5.5306875000e+009 -9.445662e+000  8.897129e+001 -4.051170e+001  5.183382e+001  2.385774e+001 -3.942381e+001 -6.774301e+000  2.315508e+001
5.5308125000e+009 -9.358710e+000  8.921595e+001 -4.112793e+001  4.632962e+001  2.382487e+001 -3.995178e+001 -7.057947e+000  2.275166e+001
5.5309375000e+009 -9.382978e+000  8.876069e+001 -4.091171e+001  5.126360e+001  2.379615e+001 -4.019241e+001 -7.027463e+000  2.293761e+001
5.5310625000e+009 -9.368528e+000  8.889722e+001 -4.065952e+001  4.825138e+001  2.381412e+001 -4.017874e+001 -7.008889e+000  2.251050e+001
5.5311875000e+009 -9.337296e+000  8.871902e+001 -4.142146e+001  4.589681e+001  2.385715e+001 -4.045586e+001 -6.851533e+000  2.175743e+001
5.5313125000e+009 -9.363453e+000  8.845461e+001 -4.067700e+001  5.409444e+001  2.384247e+001 -4.053559e+001 -6.877111e+000  2.209566e+001
5.5314375000e+009 -9.317363e+000  8.847681e+001 -4.086676e+001  4.971377e+001  2.377598e+001 -4.095067e+001 -7.215364e+000  2.271908e+001
5.5315625000e+009 -9.307086e+000  8.840901e+001 -4.090602e+001  5.017550e+001  2.384216e+001 -4.112062e+001 -6.879994e+000  2.167812e+001
5.5316875000e+009 -9.287487e+000  8.825018e+001 -4.077312e+001  4.832285e+001  2.379313e+001 -4.130751e+001 -7.065424e+000  2.269518e+001
5.5318125000e+009 -9.271110e+000  8.796879e+001 -4.152561e+001  5.096951e+001  2.376816e+001 -4.149859e+001 -6.999690e+000  2.227062e+001
5.5319375000e+009 -9.267599e+000  8.810130e+001 -4.100077e+001  5.173309e+001  2.382190e+001 -4.168901e+001 -7.043273e+000  2.150126e+001
5.5320625000e+009 -9.251489e+000  8.789915e+001 -4.136393e+001  5.386869e+001  2.378188e+001 -4.177616e+001 -7.268767e+000  2.236250e+001
5.5321875000e+009 -9.210987e+000  8.795894e+001 -4.110466e+001  4.592865e+001  2.375270e+001 -4.223843e+001 -7.257312e+000  2.108755e+001
5.5323125000e+009 -9.213992e+000  8.794289e+001 -4.093941e+001  4.706857e+001  2.380346e+001 -4.241564e+001 -7.242871e+000  2.065208e+001
5.5324375000e+009 -9.186832e+000  8.778645e+001 -4.102649e+001  5.022957e+001  2.375559e+001 -4.252260e+001 -7.332859e+000  2.177052e+001
5.5325625000e+009 -9.207569e+000  8.743931e+001 -4.131410e+001  5.774524e+001  2.374857e+001 -4.274728e+001 -7.209651e+000  2.233426e+001
5.5326875000e+009 -9.209967e+000  8.759235e+001 -4.096897e+001  5.537145e+001  2.379220e+001 -4.285958e+001 -7.012262e+000  1.998409e+001
5.5328125000e+009 -9.152761e+000  8.733163e+001 -4.125528e+001  5.041071e+001  2.374226e+001 -4.337710e+001 -7.375259e+000  1.995514e+001
5.5329375000e+009 -9.138307e+000  8.756972e+001 -4.085585e+001  4.512326e+001  2.378064e+001 -4.324904e+001 -7.295482e+000  2.100780e+001
5.5330625000e+009 -9.114749e+000  8.730521e+001 -4.149591e+001  4.985915e+001  2.375018e+001 -4.372087e+001 -7.314455e+000  2.103435e+001
5.5331875000e+009 -9.106763e+000  8.720225e+001 -4.157570e+001  4.888823e+001  2.376954e+001 -4.370942e+001 -7.356104e+000  2.048903e+001
5.5333125000e+009 -9.110159e+000  8.721664e+001 -4.108027e+001  5.014071e+001  2.375884e+001 -4.410832e+001 -7.305671e+000  2.041631e+001
5.5334375000e+009 -9.092881e+000  8.703527e+001 -4.166412e+001  5.262985e+001  2.371154e+001 -4.433014e+001 -7.375890e+000  2.036475e+001
5.5335625000e+009 -9.058420e+000  8.703596e+001 -4.184939e+001  4.614191e+001  2.371268e+001 -4.459723e+001 -7.482556e+000  1.997992e+001
5.5336875000e+009 -9.064273e+000  8.702754e+001 -4.119943e+001  4.891365e+001  2.371120e+001 -4.474546e+001 -7.529285e+000  1.963960e+001
5.5338125000e+009 -9.065915e+000  8.688066e+001 -4.108077e+001  5.320234e+001  2.369088e+001 -4.518412e+001 -7.598518e+000  1.752098e+001
5.5339375000e+009 -9.047897e+000  8.659200e+001 -4.146486e+001  5.036468e+001  2.370153e+001 -4.508646e+001 -7.467674e+000  2.030937e+001
5.5340625000e+009 -9.038444e+000  8.673033e+001 -4.098806e+001  5.079446e+001  2.369226e+001 -4.501160e+001 -7.536157e+000  1.967618e+001
5.5341875000e+009 -9.005260e+000  8.680479e+001 -4.132242e+001  4.851321e+001  2.366406e+001 -4.576675e+001 -7.569956e+000  1.843075e+001
5.5343125000e+009 -9.041605e+000  8.630328e+001 -4.183120e+001  5.563358e+001  2.363348e+001 -4.599139e+001 -7.565652e+000  1.866842e+001
5.5344375000e+009 -8.982849e+000  8.638544e+001 -4.189271e+001  5.120271e+001  2.367875e+001 -4.605359e+001 -7.598093e+000  1.897232e+001
5.5345625000e+009 -8.981505e+000  8.637868e+001 -4.166572e+001  5.378263e+001  2.361865e+001 -4.632314e+001 -7.710918e+000  1.722542e+001
5.5346875000e+009 -8.964354e+000  8.619062e+001 -4.252288e+001  5.207374e+001  2.367539e+001 -4.607568e+001 -7.656473e+000  2.090232e+001
5.5348125000e+009 -8.962010e+000  8.621558e+001 -4.143110e+001  5.116779e+001  2.362731e+001 -4.658493e+001 -7.655445e+000  1.922810e+001
5.5349375000e+009 -8.940338e+000  8.639789e+001 -4.132239e+001  5.202287e+001  2.360636e+001 -4.669017e+001 -7.763826e+000  1.743678e+001
5.5350625000e+009 -8.933412e+000  8.590923e+001 -4.184623e+001  4.952043e+001  2.358381e+001 -4.690815e+001 -7.826006e+000  1.877864e+001
5.5351875000e+009 -8.942459e+000  8.592062e+001 -4.129998e+001  4.988427e+001  2.356828e+001 -4.684449e+001 -7.858595e+000  1.672409e+001
5.5353125000e+009 -8.896220e+000  8.600238e+001 -4.198777e+001  5.129081e+001  2.358694e+001 -4.763251e+001 -7.801047e+000  1.721600e+001
5.5354375000e+009 -8.891691e+000  8.590021e+001 -4.141669e+001  4.562471e+001  2.356950e+001 -4.759120e+001 -7.947444e+000  1.772391e+001
5.5355625000e+009 -8.906170e+000  8.571177e+001 -4.167410e+001  5.415178e+001  2.352219e+001 -4.788857e+001 -7.805524e+000  1.720948e+001
5.5356875000e+009 -8.886176e+000  8.585743e+001 -4.162992e+001  5.171490e+001  2.356369e+001 -4.784278e+001 -7.879718e+000  1.715401e+001
5.5358125000e+009 -8.861767e+000  8.551297e+001 -4.156070e+001  4.658282e+001  2.355955e+001 -4.829112e+001 -7.952888e+000  1.797401e+001
5.5359375000e+009 -8.903981e+000  8.542168e+001 -4.212861e+001  5.592021e+001  2.358910e+001 -4.804872e+001 -7.891259e+000  1.849131e+001
5.5360625000e+009 -8.868370e+000  8.591621e+001 -4.141911e+001  5.416769e+001  2.346772e+001 -4.889823e+001 -7.934415e+000  1.618982e+001
5.5361875000e+009 -8.811063e+000  8.543976e+001 -4.266956e+001  5.035070e+001  2.347300e+001 -4.885224e+001 -8.060445e+000  1.745532e+001
5.5363125000e+009 -8.843657e+000  8.540728e+001 -4.150748e+001  5.100316e+001  2.350496e+001 -4.914463e+001 -8.020115e+000  1.671838e+001
5.5364375000e+009 -8.803830e+000  8.536200e+001 -4.208046e+001  5.192117e+001  2.344192e+001 -4.925071e+001 -8.089950e+000  1.679047e+001
5.5365625000e+009 -8.811973e+000  8.535822e+001 -4.153641e+001  5.212037e+001  2.350649e+001 -4.946929e+001 -8.055038e+000  1.630049e+001
5.5366875000e+009 -8.802652e+000  8.518332e+001 -4.170958e+001  5.284253e+001  2.348153e+001 -4.956868e+001 -8.102510e+000  1.631183e+001
5.5368125000e+009 -8.799705e+000  8.534753e+001 -4.201424e+001  5.173152e+001  2.340079e+001 -5.028401e+001 -8.108795e+000  1.580822e+001
5.5369375000e+009 -8.758327e+000  8.543691e+001 -4.179411e+001  5.076337e+001  2.350071e+001 -5.001992e+001 -8.211582e+000  1.629076e+001
5.5370625000e+009 -8.757467e+000  8.520192e+001 -4.247882e+001  5.019016e+001  2.342124e+001 -5.039286e+001 -8.290642e+000  1.679590e+001
5.5371875000e+009 -8.719645e+000  8.514967e+001 -4.215324e+001  4.839153e+001  2.338973e+001 -5.039189e+001 -8.309953e+000  1.577008e+001
5.5373125000e+009 -8.753964e+000  8.493332e+001 -4.164845e+001  5.041567e+001  2.343011e+001 -5.043119e+001 -8.205178e+000  1.591275e+001
5.5374375000e+009 -8.764647e+000  8.481400e+001 -4.161863e+001  4.997526e+001  2.340799e+001 -5.080124e+001 -8.309203e+000  1.547829e+001
5.5375625000e+009 -8.734822e+000  8.511407e+001 -4.206396e+001  5.370658e+001  2.333483e+001 -5.142891e+001 -8.351325e+000  1.480089e+001
5.5376875000e+009 -8.701855e+000  8.469708e+001 -4.223382e+001  4.772192e+001  2.341449e+001 -5.121243e+001 -8.417839e+000  1.561764e+001
5.5378125000e+009 -8.701218e+000  8.485811e+001 -4.212718e+001  5.253026e+001  2.335958e+001 -5.131630e+001 -8.346090e+000  1.533186e+001
5.5379375000e+009 -8.689643e+000  8.475367e+001 -4.202633e+001  5.180249e+001  2.335083e+001 -5.174778e+001 -8.457219e+000  1.459676e+001
5.5380625000e+009 -8.683560e+000  8.520602e+001 -4.220249e+001  5.032207e+001  2.338472e+001 -5.142413e+001 -8.455792e+000  1.459390e+001
5.5381875000e+009 -8.670329e+000  8.503178e+001 -4.234943e+001  4.650072e+001  2.336843e+001 -5.189247e+001 -8.491565e+000  1.422931e+001
5.5383125000e+009 -8.622489e+000  8.489320e+001 -4.255087e+001  4.711273e+001  2.327631e+001 -5.216153e+001 -8.561564e+000  1.386690e+001
5.5384375000e+009 -8.630775e+000  8.483259e+001 -4.218963e+001  5.031310e+001  2.328587e+001 -5.257067e+001 -8.485504e+000  1.345422e+001
5.5385625000e+009 -8.620615e+000  8.456190e+001 -4.176248e+001  4.733185e+001  2.335538e+001 -5.261723e+001 -8.540342e+000  1.314251e+001
5.5386875000e+009 -8.597815e+000  8.481538e+001 -4.246962e+001  4.966658e+001  2.326199e+001 -5.282645e+001 -8.599105e+000  1.289446e+001
5.5388125000e+009 -8.591186e+000  8.491125e+001 -4.288866e+001  4.923415e+001  2.333287e+001 -5.270036e+001 -8.634312e+000  1.322238e+001
5.5389375000e+009 -8.605085e+000  8.472178e+001 -4.228267e+001  4.920056e+001  2.331803e+001 -5.259921e+001 -8.634455e+000  1.311571e+001
5.5390625000e+009 -8.592588e+000  8.494903e+001 -4.243495e+001  4.863079e+001  2.326843e+001 -5.360092e+001 -8.666582e+000  1.194262e+001
5.5391875000e+009 -8.602502e+000  8.520221e+001 -4.181084e+001  5.149018e+001  2.327523e+001 -5.264643e+001 -8.535172e+000  1.177911e+001
5.5393125000e+009 -8.569029e+000  8.466862e+001 -4.203984e+001  4.956218e+001  2.325403e+001 -5.322803e+001 -8.666397e+000  1.182144e+001
5.5394375000e+009 -8.564228e+000  8.490112e+001 -4.298306e+001  5.233406e+001  2.316470e+001 -5.407271e+001 -8.664363e+000  1.164975e+001
5.5395625000e+009 -8.549355e+000  8.488982e+001 -4.268848e+001  4.834336e+001  2.311797e+001 -5.407898e+001 -8.717028e+000  1.161607e+001
5.5396875000e+009 -8.556332e+000  8.472893e+001 -4.203231e+001  5.164636e+001  2.309735e+001 -5.402362e+001 -8.684079e+000  1.112244e+001
5.5398125000e+009 -8.533619e+000  8.482858e+001 -4.225182e+001  4.832924e+001  2.317102e+001 -5.425343e+001 -8.838370e+000  1.042164e+001
5.5399375000e+009 -8.535987e+000  8.503332e+001 -4.231734e+001  4.569715e+001  2.324336e+001 -5.418620e+001 -8.823198e+000  1.069383e+001
5.5400625000e+009 -8.511850e+000  8.437209e+001 -4.195818e+001  4.641985e+001  2.323512e+001 -5.431718e+001 -8.821502e+000  9.957301e+000
5.5401875000e+009 -8.548481e+000  8.494082e+001 -4.187510e+001  5.024174e+001  2.311907e+001 -5.514466e+001 -8.824833e+000  9.280144e+000
5.5403125000e+009 -8.521886e+000  8.474937e+001 -4.210382e+001  4.861113e+001  2.309462e+001 -5.498030e+001 -8.866407e+000  9.678909e+000
5.5404375000e+009 -8.480540e+000  8.491889e+001 -4.207598e+001  4.606562e+001  2.318986e+001 -5.485809e+001 -8.904771e+000  9.312581e+000
5.5405625000e+009 -8.520774e+000  8.515023e+001 -4.188457e+001  5.381853e+001  2.307479e+001 -5.558283e+001 -8.841164e+000  8.596533e+000
5.5406875000e+009 -8.508587e+000  8.503342e+001 -4.242674e+001  4.914635e+001  2.308716e+001 -5.569627e+001 -8.900360e+000  8.882193e+000
5.5408125000e+009 -8.491458e+000  8.461581e+001 -4.315247e+001  5.333196e+001  2.319558e+001 -5.550299e+001 -8.848707e+000  8.662683e+000
5.5409375000e+009 -8.497348e+000  8.501156e+001 -4.248102e+001  5.230408e+001  2.305486e+001 -5.599418e+001 -8.866943e+000  8.077287e+000
5.5410625000e+009 -8.483051e+000  8.510534e+001 -4.293265e+001  4.684023e+001  2.307299e+001 -5.600133e+001 -9.030357e+000  8.029742e+000
5.5411875000e+009 -8.442261e+000  8.478835e+001 -4.205816e+001  4.801231e+001  2.303972e+001 -5.581915e+001 -8.934399e+000  7.502007e+000
5.5413125000e+009 -8.468656e+000  8.514145e+001 -4.251709e+001  5.129346e+001  2.304087e+001 -5.667238e+001 -9.026466e+000  7.037739e+000
5.5414375000e+009 -8.472701e+000  8.534795e+001 -4.185171e+001  4.692651e+001  2.302398e+001 -5.674795e+001 -9.067921e+000  6.661688e+000
5.5415625000e+009 -8.424885e+000  8.473703e+001 -4.249852e+001  5.006842e+001  2.303199e+001 -5.682070e+001 -9.031617e+000  7.252153e+000
5.5416875000e+009 -8.438212e+000  8.487366e+001 -4.262409e+001  4.651642e+001  2.307412e+001 -5.697435e+001 -9.077834e+000  6.366730e+000
5.5418125000e+009 -8.425311e+000  8.492999e+001 -4.308749e+001  4.638040e+001  2.296406e+001 -5.751472e+001 -9.175482e+000  6.575769e+000
5.5419375000e+009 -8.427970e+000  8.481131e+001 -4.200063e+001  4.914699e+001  2.303245e+001 -5.714800e+001 -9.024748e+000  5.356853e+000
5.5420625000e+009 -8.417192e+000  8.497353e+001 -4.273615e+001  4.999782e+001  2.298448e+001 -5.705864e+001 -8.997832e+000  6.091639e+000
5.5421875000e+009 -8.420311e+000  8.514527e+001 -4.180185e+001  4.599706e+001  2.292296e+001 -5.747418e+001 -9.186251e+000  5.397898e+000
5.5423125000e+009 -8.385019e+000  8.484509e+001 -4.302642e+001  4.583872e+001  2.298672e+001 -5.714214e+001 -9.108727e+000  5.759909e+000
5.5424375000e+009 -8.418659e+000  8.496998e+001 -4.207144e+001  4.851575e+001  2.289860e+001 -5.783680e+001 -9.112702e+000  4.817874e+000
5.5425625000e+009 -8.410679e+000  8.502783e+001 -4.261532e+001  4.372716e+001  2.289661e+001 -5.801608e+001 -9.237965e+000  5.137390e+000
5.5426875000e+009 -8.370398e+000  8.470179e+001 -4.391558e+001  5.048959e+001  2.291176e+001 -5.839951e+001 -9.173710e+000  5.633365e+000
5.5428125000e+009 -8.393193e+000  8.479807e+001 -4.269195e+001  5.113739e+001  2.285779e+001 -5.909443e+001 -9.319321e+000  4.459260e+000
5.5429375000e+009 -8.379889e+000  8.488981e+001 -4.294295e+001  4.824467e+001  2.285896e+001 -5.902890e+001 -9.281074e+000  4.607713e+000
5.5430625000e+009 -8.353441e+000  8.457043e+001 -4.293824e+001  4.659103e+001  2.293470e+001 -5.846781e+001 -9.203186e+000  4.012278e+000
5.5431875000e+009 -8.399474e+000  8.501151e+001 -4.230453e+001  4.981432e+001  2.285800e+001 -5.950409e+001 -9.348106e+000  3.116616e+000
5.5433125000e+009 -8.376697e+000  8.488445e+001 -4.258059e+001  4.694260e+001  2.281274e+001 -5.877193e+001 -9.181017e+000  4.502946e+000
5.5434375000e+009 -8.380384e+000  8.493534e+001 -4.228169e+001  5.056538e+001  2.280303e+001 -5.874390e+001 -9.127248e+000  3.808004e+000
5.5435625000e+009 -8.357013e+000  8.495481e+001 -4.289739e+001  4.306869e+001  2.278475e+001 -6.002462e+001 -9.467605e+000  3.203718e+000
5.5436875000e+009 -8.360431e+000  8.489056e+001 -4.296513e+001  4.640271e+001  2.282594e+001 -5.920185e+001 -9.254224e+000  3.327266e+000
5.5438125000e+009 -8.347310e+000  8.483012e+001 -4.315101e+001  4.481648e+001  2.279345e+001 -5.948970e+001 -9.286626e+000  3.200619e+000
5.5439375000e+009 -8.350522e+000  8.480153e+001 -4.312306e+001  4.709302e+001  2.278776e+001 -6.023154e+001 -9.411748e+000  2.888789e+000
5.5440625000e+009 -8.374689e+000  8.499535e+001 -4.229692e+001  4.796952e+001  2.283509e+001 -6.051781e+001 -9.446814e+000  2.012695e+000
5.5441875000e+009 -8.369448e+000  8.489271e+001 -4.279556e+001  5.059946e+001  2.275464e+001 -5.998695e+001 -9.252883e+000  2.400327e+000
5.5443125000e+009 -8.334684e+000  8.475819e+001 -4.261298e+001  4.641298e+001  2.274121e+001 -6.080447e+001 -9.485337e+000  1.942868e+000
5.5444375000e+009 -8.346890e+000  8.485046e+001 -4.198399e+001  4.560925e+001  2.276764e+001 -6.044984e+001 -9.357327e+000  7.661985e-001
5.5445625000e+009 -8.311778e+000  8.483017e+001 -4.380466e+001  4.280943e+001  2.275586e+001 -5.983450e+001 -9.249393e+000  2.807742e+000
5.5446875000e+009 -8.334654e+000  8.484378e+001 -4.269938e+001  4.826432e+001  2.273522e+001 -6.113869e+001 -9.510956e+000  1.002157e+000
5.5448125000e+009 -8.337259e+000  8.486905e+001 -4.257851e+001  4.552605e+001  2.271634e+001 -6.091430e+001 -9.513730e+000  9.662697e-001
5.5449375000e+009 -8.326647e+000  8.482551e+001 -4.232838e+001  4.137463e+001  2.266108e+001 -6.043414e+001 -9.290415e+000  9.703185e-001
5.5450625000e+009 -8.325561e+000  8.482332e+001 -4.266457e+001  4.530666e+001  2.267021e+001 -6.102240e+001 -9.299546e+000  4.053763e-001
5.5451875000e+009 -8.309754e+000  8.477959e+001 -4.316146e+001  4.434255e+001  2.263336e+001 -6.212013e+001 -9.541856e+000  9.718902e-001
5.5453125000e+009 -8.319294e+000  8.481735e+001 -4.236539e+001  4.277095e+001  2.268333e+001 -6.183691e+001 -9.508288e+000 -4.420586e-001
5.5454375000e+009 -8.317349e+000  8.483023e+001 -4.266051e+001  4.492959e+001  2.267081e+001 -6.232337e+001 -9.607059e+000 -1.773341e-001
5.5455625000e+009 -8.319925e+000  8.483390e+001 -4.231537e+001  4.749031e+001  2.264356e+001 -6.161914e+001 -9.342044e+000  5.080683e-001
5.5456875000e+009 -8.301621e+000  8.465723e+001 -4.368801e+001  4.686091e+001  2.265310e+001 -6.157803e+001 -9.336238e+000  6.277884e-001
5.5458125000e+009 -8.307648e+000  8.489371e+001 -4.267445e+001  4.453467e+001  2.272507e+001 -6.204639e+001 -9.566409e+000 -1.122780e+000
5.5459375000e+009 -8.306646e+000  8.473692e+001 -4.318575e+001  4.819838e+001  2.266240e+001 -6.271078e+001 -9.510609e+000 -1.905725e+000
5.5460625000e+009 -8.289783e+000  8.474405e+001 -4.337051e+001  4.145415e+001  2.262627e+001 -6.242740e+001 -9.515024e+000 -1.677296e-002
5.5461875000e+009 -8.305758e+000  8.467366e+001 -4.335053e+001  4.985316e+001  2.263888e+001 -6.279852e+001 -9.465327e+000 -1.012811e+000
5.5463125000e+009 -8.301311e+000  8.475771e+001 -4.272737e+001  4.647160e+001  2.259278e+001 -6.297588e+001 -9.595616e+000 -1.525262e+000
