# Hz  S  DB  R  50
! ADVANTEST Corporation R3860A
! Date: Wed Apr 11 19:53:05 2007
5.3463125000e+009 -5.133576e+000  3.697678e+000 -3.630579e+001 -2.910604e+001  2.743536e+001 -1.724022e+002 -5.284013e+000  6.474581e+001
5.3464375000e+009 -5.139287e+000  3.904254e+000 -3.565191e+001 -3.278574e+001  2.745226e+001 -1.729921e+002 -5.327476e+000  6.536652e+001
5.3465625000e+009 -5.066113e+000  3.490376e+000 -3.642872e+001 -2.905627e+001  2.750376e+001 -1.733808e+002 -5.350072e+000  6.504279e+001
5.3466875000e+009 -5.020415e+000  3.036465e+000 -3.613652e+001 -2.569148e+001  2.746305e+001 -1.735550e+002 -5.462340e+000  6.501124e+001
5.3468125000e+009 -4.986244e+000  3.487221e+000 -3.608984e+001 -3.420295e+001  2.752583e+001 -1.739516e+002 -5.401336e+000  6.542501e+001
5.3469375000e+009 -4.968750e+000  3.048730e+000 -3.608090e+001 -3.288140e+001  2.755300e+001 -1.744447e+002 -5.498045e+000  6.556296e+001
5.3470625000e+009 -4.913979e+000  2.787444e+000 -3.618264e+001 -2.966141e+001  2.752264e+001 -1.744205e+002 -5.552818e+000  6.539812e+001
5.3471875000e+009 -4.890264e+000  2.803868e+000 -3.608274e+001 -3.309671e+001  2.742140e+001 -1.749611e+002 -5.542799e+000  6.544116e+001
5.3473125000e+009 -4.839110e+000  2.529464e+000 -3.622315e+001 -3.244678e+001  2.754658e+001 -1.744091e+002 -5.629807e+000  6.545964e+001
5.3474375000e+009 -4.772304e+000  2.646299e+000 -3.667587e+001 -3.442065e+001  2.741460e+001 -1.755105e+002 -5.622926e+000  6.490295e+001
5.3475625000e+009 -4.802492e+000  2.288729e+000 -3.584224e+001 -3.098406e+001  2.746750e+001 -1.756194e+002 -5.684697e+000  6.558428e+001
5.3476875000e+009 -4.751792e+000  2.254689e+000 -3.556838e+001 -3.406277e+001  2.748577e+001 -1.758528e+002 -5.719610e+000  6.588627e+001
5.3478125000e+009 -4.692760e+000  1.990152e+000 -3.609526e+001 -3.301958e+001  2.746850e+001 -1.759493e+002 -5.777900e+000  6.546321e+001
5.3479375000e+009 -4.652530e+000  1.912456e+000 -3.592339e+001 -3.430035e+001  2.746187e+001 -1.770618e+002 -5.777735e+000  6.562672e+001
5.3480625000e+009 -4.649232e+000  1.605787e+000 -3.566454e+001 -3.250542e+001  2.753500e+001 -1.771276e+002 -5.894377e+000  6.605007e+001
5.3481875000e+009 -4.628678e+000  1.492598e+000 -3.557217e+001 -3.123447e+001  2.754824e+001 -1.768542e+002 -5.917903e+000  6.599950e+001
5.3483125000e+009 -4.569947e+000  1.451633e+000 -3.573522e+001 -3.386035e+001  2.752480e+001 -1.776992e+002 -5.935593e+000  6.590365e+001
5.3484375000e+009 -4.543046e+000  9.434464e-001 -3.570796e+001 -3.002394e+001  2.758365e+001 -1.772249e+002 -6.052287e+000  6.600485e+001
5.3485625000e+009 -4.504302e+000  1.116920e+000 -3.551636e+001 -3.467403e+001  2.742741e+001 -1.781539e+002 -5.983231e+000  6.589120e+001
5.3486875000e+009 -4.439164e+000  9.163310e-001 -3.581144e+001 -3.658550e+001  2.738972e+001 -1.786484e+002 -5.976515e+000  6.594603e+001
5.3488125000e+009 -4.432175e+000  7.529842e-001 -3.540963e+001 -3.449991e+001  2.737007e+001 -1.788284e+002 -6.041656e+000  6.627012e+001
5.3489375000e+009 -4.413252e+000  5.329655e-001 -3.526950e+001 -3.494522e+001  2.744498e+001 -1.787312e+002 -6.169554e+000  6.626324e+001
5.3490625000e+009 -4.355798e+000  2.975638e-001 -3.570625e+001 -3.398293e+001  2.731118e+001 -1.793211e+002 -6.148716e+000  6.594370e+001
5.3491875000e+009 -4.328063e+000  2.599042e-001 -3.499604e+001 -3.722597e+001  2.745329e+001 -1.794526e+002 -6.196466e+000  6.676127e+001
5.3493125000e+009 -4.306522e+000  7.340250e-002 -3.549355e+001 -3.367569e+001  2.736057e+001 -1.799310e+002 -6.331757e+000  6.613533e+001
5.3494375000e+009 -4.254321e+000  1.365740e-003 -3.515430e+001 -3.698841e+001  2.729473e+001  1.795079e+002 -6.210735e+000  6.672777e+001
5.3495625000e+009 -4.196584e+000 -2.155678e-001 -3.531749e+001 -3.572936e+001  2.746489e+001  1.797068e+002 -6.335578e+000  6.693431e+001
5.3496875000e+009 -4.163761e+000 -4.063647e-001 -3.542459e+001 -3.694036e+001  2.745078e+001  1.796081e+002 -6.414735e+000  6.637782e+001
5.3498125000e+009 -4.127797e+000 -4.986795e-001 -3.599321e+001 -3.555682e+001  2.741676e+001  1.792265e+002 -6.431497e+000  6.615568e+001
5.3499375000e+009 -4.086625e+000 -8.046926e-001 -3.547548e+001 -3.855348e+001  2.729143e+001  1.782459e+002 -6.381705e+000  6.652699e+001
5.3500625000e+009 -4.095206e+000 -7.761382e-001 -3.535631e+001 -3.672939e+001  2.748145e+001  1.790295e+002 -6.520421e+000  6.684454e+001
5.3501875000e+009 -4.033714e+000 -1.087406e+000 -3.541555e+001 -3.567448e+001  2.721586e+001  1.781197e+002 -6.446933e+000  6.661063e+001
5.3503125000e+009 -3.988361e+000 -8.818270e-001 -3.492830e+001 -3.918851e+001  2.737711e+001  1.776034e+002 -6.508331e+000  6.740224e+001
5.3504375000e+009 -3.982003e+000 -1.051088e+000 -3.504959e+001 -3.857721e+001  2.729861e+001  1.779397e+002 -6.532319e+000  6.711237e+001
5.3505625000e+009 -3.891930e+000 -1.340420e+000 -3.475319e+001 -3.514713e+001  2.736410e+001  1.775805e+002 -6.671035e+000  6.756808e+001
5.3506875000e+009 -3.864832e+000 -1.388875e+000 -3.478934e+001 -3.697553e+001  2.737558e+001  1.773423e+002 -6.651770e+000  6.731966e+001
5.3508125000e+009 -3.796584e+000 -1.353376e+000 -3.467744e+001 -3.715048e+001  2.733933e+001  1.771670e+002 -6.662384e+000  6.766982e+001
5.3509375000e+009 -3.755611e+000 -1.591347e+000 -3.515407e+001 -4.021564e+001  2.738318e+001  1.767316e+002 -6.693169e+000  6.741296e+001
5.3510625000e+009 -3.702974e+000 -1.762123e+000 -3.500650e+001 -3.739006e+001  2.721818e+001  1.761505e+002 -6.681657e+000  6.725791e+001
5.3511875000e+009 -3.645097e+000 -2.027923e+000 -3.529804e+001 -4.005906e+001  2.728366e+001  1.758229e+002 -6.725808e+000  6.754677e+001
5.3513125000e+009 -3.618896e+000 -1.806972e+000 -3.560516e+001 -3.860459e+001  2.736932e+001  1.763495e+002 -6.874447e+000  6.715458e+001
5.3514375000e+009 -3.569979e+000 -2.069327e+000 -3.514960e+001 -3.801093e+001  2.735708e+001  1.764554e+002 -6.852857e+000  6.737495e+001
5.3515625000e+009 -3.528876e+000 -2.437252e+000 -3.555928e+001 -3.794740e+001  2.726221e+001  1.757413e+002 -6.914595e+000  6.699179e+001
5.3516875000e+009 -3.465292e+000 -2.093636e+000 -3.473004e+001 -4.055762e+001  2.721631e+001  1.754477e+002 -6.856213e+000  6.773518e+001
5.3518125000e+009 -3.450162e+000 -2.375490e+000 -3.495256e+001 -3.186342e+001  2.724437e+001  1.757336e+002 -7.090447e+000  6.742046e+001
5.3519375000e+009 -3.387543e+000 -2.414645e+000 -3.487348e+001 -3.714103e+001  2.724646e+001  1.745592e+002 -6.952117e+000  6.823849e+001
5.3520625000e+009 -3.306794e+000 -2.279688e+000 -3.486444e+001 -3.868283e+001  2.718506e+001  1.748917e+002 -7.005270e+000  6.760017e+001
5.3521875000e+009 -3.269533e+000 -2.526039e+000 -3.476192e+001 -4.083470e+001  2.721622e+001  1.745699e+002 -7.020034e+000  6.794302e+001
5.3523125000e+009 -3.228582e+000 -2.781782e+000 -3.509164e+001 -4.085567e+001  2.724873e+001  1.746664e+002 -7.190475e+000  6.749672e+001
5.3524375000e+009 -3.213106e+000 -2.784073e+000 -3.470771e+001 -4.062633e+001  2.723005e+001  1.745352e+002 -7.125369e+000  6.809898e+001
5.3525625000e+009 -3.144519e+000 -2.967126e+000 -3.429623e+001 -4.079937e+001  2.714008e+001  1.734672e+002 -7.036756e+000  6.850051e+001
5.3526875000e+009 -3.103748e+000 -3.137886e+000 -3.465783e+001 -4.001306e+001  2.716237e+001  1.734486e+002 -7.133104e+000  6.822173e+001
5.3528125000e+009 -3.053751e+000 -2.993629e+000 -3.430864e+001 -4.331745e+001  2.719032e+001  1.727654e+002 -7.135802e+000  6.881590e+001
5.3529375000e+009 -3.019904e+000 -3.286233e+000 -3.473470e+001 -3.877423e+001  2.716674e+001  1.730952e+002 -7.264903e+000  6.816769e+001
5.3530625000e+009 -2.993297e+000 -3.436687e+000 -3.437539e+001 -4.255481e+001  2.711003e+001  1.731032e+002 -7.218858e+000  6.798534e+001
5.3531875000e+009 -2.936923e+000 -3.614401e+000 -3.484869e+001 -4.397498e+001  2.713874e+001  1.721983e+002 -7.221640e+000  6.836762e+001
5.3533125000e+009 -2.872420e+000 -3.812614e+000 -3.477377e+001 -4.128349e+001  2.715752e+001  1.727501e+002 -7.369787e+000  6.835941e+001
5.3534375000e+009 -2.862221e+000 -3.777607e+000 -3.461989e+001 -4.035093e+001  2.717361e+001  1.720862e+002 -7.382346e+000  6.899589e+001
5.3535625000e+009 -2.764115e+000 -3.825301e+000 -3.470188e+001 -4.207616e+001  2.710437e+001  1.709453e+002 -7.341627e+000  6.931235e+001
5.3536875000e+009 -2.710261e+000 -3.503263e+000 -3.506402e+001 -4.081705e+001  2.710401e+001  1.706665e+002 -7.296270e+000  6.936340e+001
5.3538125000e+009 -2.707743e+000 -4.311888e+000 -3.436064e+001 -4.100216e+001  2.704795e+001  1.717200e+002 -7.446340e+000  6.854285e+001
5.3539375000e+009 -2.694292e+000 -4.084264e+000 -3.477762e+001 -4.191927e+001  2.709481e+001  1.715662e+002 -7.442955e+000  6.893250e+001
5.3540625000e+009 -2.614343e+000 -4.559715e+000 -3.456968e+001 -4.532475e+001  2.703997e+001  1.707151e+002 -7.433888e+000  6.896642e+001
5.3541875000e+009 -2.571856e+000 -4.434420e+000 -3.486590e+001 -4.262901e+001  2.703432e+001  1.707454e+002 -7.553947e+000  6.867458e+001
5.3543125000e+009 -2.559875e+000 -4.652119e+000 -3.462909e+001 -4.132695e+001  2.696259e+001  1.704859e+002 -7.511258e+000  6.856776e+001
5.3544375000e+009 -2.489913e+000 -4.543243e+000 -3.460173e+001 -4.486008e+001  2.704070e+001  1.701540e+002 -7.572323e+000  6.933887e+001
5.3545625000e+009 -2.490761e+000 -4.553031e+000 -3.409742e+001 -4.119312e+001  2.703312e+001  1.706333e+002 -7.599405e+000  6.938851e+001
5.3546875000e+009 -2.437898e+000 -5.301611e+000 -3.485533e+001 -4.519772e+001  2.699984e+001  1.691348e+002 -7.460211e+000  6.953155e+001
5.3548125000e+009 -2.360142e+000 -4.606507e+000 -3.417200e+001 -4.275574e+001  2.698823e+001  1.690281e+002 -7.637888e+000  7.015060e+001
5.3549375000e+009 -2.285803e+000 -5.195439e+000 -3.474562e+001 -4.496731e+001  2.700368e+001  1.697614e+002 -7.633920e+000  6.896600e+001
5.3550625000e+009 -2.299994e+000 -5.325516e+000 -3.438775e+001 -4.591273e+001  2.691495e+001  1.698343e+002 -7.770023e+000  6.821696e+001
5.3551875000e+009 -2.240376e+000 -4.731103e+000 -3.421753e+001 -4.115856e+001  2.701263e+001  1.686937e+002 -7.712122e+000  7.072550e+001
5.3553125000e+009 -2.225857e+000 -5.636253e+000 -3.449487e+001 -4.354875e+001  2.694565e+001  1.691990e+002 -7.805599e+000  6.929194e+001
5.3554375000e+009 -2.186311e+000 -5.440415e+000 -3.451269e+001 -4.599317e+001  2.694657e+001  1.681416e+002 -7.722240e+000  7.009289e+001
5.3555625000e+009 -2.113275e+000 -5.481363e+000 -3.415139e+001 -4.263070e+001  2.700444e+001  1.680626e+002 -7.740678e+000  7.108784e+001
5.3556875000e+009 -2.097944e+000 -6.029351e+000 -3.461939e+001 -4.709284e+001  2.688663e+001  1.681918e+002 -7.862247e+000  6.917865e+001
5.3558125000e+009 -2.068954e+000 -5.549644e+000 -3.417619e+001 -4.607701e+001  2.692046e+001  1.674214e+002 -7.643460e+000  7.107593e+001
5.3559375000e+009 -2.013238e+000 -5.843473e+000 -3.422824e+001 -4.351030e+001  2.688639e+001  1.678601e+002 -7.920455e+000  6.987290e+001
5.3560625000e+009 -2.055775e+000 -6.263549e+000 -3.453778e+001 -4.369284e+001  2.688796e+001  1.671923e+002 -7.744191e+000  7.066219e+001
5.3561875000e+009 -1.967589e+000 -6.971366e+000 -3.471336e+001 -4.724693e+001  2.685109e+001  1.673968e+002 -7.974076e+000  6.931112e+001
5.3563125000e+009 -1.931489e+000 -6.247421e+000 -3.427778e+001 -4.360867e+001  2.685028e+001  1.665296e+002 -7.804563e+000  7.039260e+001
5.3564375000e+009 -1.873486e+000 -6.426622e+000 -3.409195e+001 -4.555964e+001  2.685628e+001  1.666882e+002 -7.972413e+000  7.074490e+001
5.3565625000e+009 -1.865123e+000 -6.711453e+000 -3.433414e+001 -4.652264e+001  2.683865e+001  1.662362e+002 -7.893369e+000  7.064894e+001
5.3566875000e+009 -1.813152e+000 -6.890736e+000 -3.406964e+001 -4.485133e+001  2.685823e+001  1.656481e+002 -7.838897e+000  7.188892e+001
5.3568125000e+009 -1.820553e+000 -6.668653e+000 -3.417126e+001 -4.381244e+001  2.680395e+001  1.665393e+002 -8.021624e+000  7.027607e+001
5.3569375000e+009 -1.707308e+000 -7.252173e+000 -3.402274e+001 -4.848392e+001  2.683881e+001  1.654687e+002 -7.875474e+000  7.165585e+001
5.3570625000e+009 -1.713390e+000 -6.746979e+000 -3.405338e+001 -4.470721e+001  2.680275e+001  1.659082e+002 -8.030220e+000  7.102824e+001
5.3571875000e+009 -1.664713e+000 -7.022137e+000 -3.386445e+001 -4.583327e+001  2.679502e+001  1.651269e+002 -7.988163e+000  7.147790e+001
5.3573125000e+009 -1.626883e+000 -7.319215e+000 -3.433017e+001 -4.565064e+001  2.681038e+001  1.651228e+002 -8.035228e+000  7.149499e+001
5.3574375000e+009 -1.612143e+000 -7.429478e+000 -3.450919e+001 -4.824650e+001  2.677265e+001  1.646005e+002 -7.907305e+000  7.128078e+001
5.3575625000e+009 -1.572856e+000 -7.679890e+000 -3.391645e+001 -4.649129e+001  2.676912e+001  1.648302e+002 -7.962712e+000  7.131342e+001
5.3576875000e+009 -1.582772e+000 -7.394946e+000 -3.484807e+001 -4.818979e+001  2.675382e+001  1.644346e+002 -8.139939e+000  7.089172e+001
5.3578125000e+009 -1.534258e+000 -7.471426e+000 -3.425973e+001 -4.651125e+001  2.675458e+001  1.642351e+002 -8.095382e+000  7.181636e+001
5.3579375000e+009 -1.459373e+000 -7.711015e+000 -3.376906e+001 -4.803394e+001  2.671672e+001  1.641526e+002 -8.026449e+000  7.113567e+001
5.3580625000e+009 -1.419706e+000 -8.314995e+000 -3.397434e+001 -4.668493e+001  2.671395e+001  1.637522e+002 -8.176242e+000  7.169374e+001
5.3581875000e+009 -1.459575e+000 -7.968842e+000 -3.374680e+001 -4.555151e+001  2.674305e+001  1.636988e+002 -8.051385e+000  7.320773e+001
5.3583125000e+009 -1.353453e+000 -8.350306e+000 -3.385103e+001 -4.474349e+001  2.668498e+001  1.633683e+002 -8.147638e+000  7.158527e+001
5.3584375000e+009 -1.361264e+000 -8.400897e+000 -3.434941e+001 -4.755713e+001  2.672121e+001  1.630819e+002 -8.108708e+000  7.319579e+001
5.3585625000e+009 -1.314767e+000 -8.509513e+000 -3.420572e+001 -4.994756e+001  2.669457e+001  1.629643e+002 -8.122290e+000  7.206810e+001
5.3586875000e+009 -1.287416e+000 -8.642622e+000 -3.424234e+001 -4.832940e+001  2.666868e+001  1.627108e+002 -8.154502e+000  7.204452e+001
5.3588125000e+009 -1.301136e+000 -8.626746e+000 -3.424994e+001 -4.570073e+001  2.667122e+001  1.624497e+002 -8.192945e+000  7.221194e+001
5.3589375000e+009 -1.311547e+000 -8.254840e+000 -3.408258e+001 -4.766946e+001  2.666187e+001  1.624797e+002 -8.156450e+000  7.356438e+001
5.3590625000e+009 -1.236804e+000 -8.861148e+000 -3.409162e+001 -4.494050e+001  2.665115e+001  1.620440e+002 -8.254138e+000  7.324807e+001
5.3591875000e+009 -1.172314e+000 -8.965666e+000 -3.377982e+001 -4.878793e+001  2.661365e+001  1.618613e+002 -8.264027e+000  7.341223e+001
5.3593125000e+009 -1.193534e+000 -8.843673e+000 -3.406017e+001 -4.694907e+001  2.663279e+001  1.618190e+002 -8.263002e+000  7.426280e+001
5.3594375000e+009 -1.128601e+000 -9.021557e+000 -3.391888e+001 -4.667447e+001  2.660278e+001  1.616088e+002 -8.272173e+000  7.333289e+001
5.3595625000e+009 -1.140453e+000 -9.011440e+000 -3.415471e+001 -4.750216e+001  2.660067e+001  1.615019e+002 -8.274200e+000  7.355211e+001
5.3596875000e+009 -1.091803e+000 -9.178401e+000 -3.415269e+001 -4.947028e+001  2.660624e+001  1.610490e+002 -8.270028e+000  7.422431e+001
5.3598125000e+009 -1.097008e+000 -9.129807e+000 -3.420548e+001 -4.972572e+001  2.657096e+001  1.608646e+002 -8.284026e+000  7.335036e+001
5.3599375000e+009 -1.037934e+000 -9.374983e+000 -3.352642e+001 -4.630100e+001  2.656772e+001  1.604076e+002 -8.249870e+000  7.369277e+001
5.3600625000e+009 -1.055304e+000 -9.193079e+000 -3.471817e+001 -4.979768e+001  2.658786e+001  1.605842e+002 -8.338896e+000  7.418359e+001
5.3601875000e+009 -9.888715e-001 -9.536637e+000 -3.408905e+001 -5.000925e+001  2.655091e+001  1.600834e+002 -8.383548e+000  7.418878e+001
5.3603125000e+009 -9.709390e-001 -9.458767e+000 -3.390826e+001 -4.892802e+001  2.657427e+001  1.599018e+002 -8.295879e+000  7.418188e+001
5.3604375000e+009 -9.471689e-001 -9.526882e+000 -3.389313e+001 -4.993839e+001  2.653905e+001  1.597729e+002 -8.377705e+000  7.393579e+001
5.3605625000e+009 -8.885628e-001 -9.626977e+000 -3.353515e+001 -4.888776e+001  2.658483e+001  1.596558e+002 -8.179165e+000  7.463648e+001
5.3606875000e+009 -8.757616e-001 -9.844271e+000 -3.356326e+001 -5.258321e+001  2.653118e+001  1.595325e+002 -8.241555e+000  7.475171e+001
5.3608125000e+009 -8.439425e-001 -9.897372e+000 -3.386504e+001 -4.809475e+001  2.648022e+001  1.593351e+002 -8.456590e+000  7.603592e+001
5.3609375000e+009 -8.093187e-001 -9.975849e+000 -3.410132e+001 -5.180960e+001  2.653398e+001  1.590547e+002 -8.316488e+000  7.498752e+001
5.3610625000e+009 -8.108740e-001 -1.001097e+001 -3.381920e+001 -4.942624e+001  2.654253e+001  1.588126e+002 -8.250288e+000  7.425835e+001
5.3611875000e+009 -8.534589e-001 -9.793695e+000 -3.387782e+001 -5.223864e+001  2.645559e+001  1.586956e+002 -8.466519e+000  7.536305e+001
5.3613125000e+009 -7.772369e-001 -1.015721e+001 -3.437891e+001 -5.385289e+001  2.652693e+001  1.584770e+002 -8.275726e+000  7.451244e+001
5.3614375000e+009 -7.097576e-001 -1.019651e+001 -3.375003e+001 -4.966637e+001  2.644989e+001  1.578881e+002 -8.447737e+000  7.525188e+001
5.3615625000e+009 -7.048168e-001 -1.014098e+001 -3.359560e+001 -4.915082e+001  2.650476e+001  1.582850e+002 -8.213655e+000  7.570646e+001
5.3616875000e+009 -6.453532e-001 -1.031048e+001 -3.350189e+001 -5.146925e+001  2.645794e+001  1.575698e+002 -8.349948e+000  7.536900e+001
5.3618125000e+009 -6.521062e-001 -1.026004e+001 -3.377092e+001 -5.177437e+001  2.652040e+001  1.577531e+002 -8.193376e+000  7.536028e+001
5.3619375000e+009 -6.286757e-001 -1.047305e+001 -3.374303e+001 -5.274857e+001  2.638225e+001  1.575248e+002 -8.423262e+000  7.630177e+001
5.3620625000e+009 -5.660121e-001 -1.071951e+001 -3.349920e+001 -4.620203e+001  2.645913e+001  1.570217e+002 -8.348997e+000  7.684141e+001
5.3621875000e+009 -5.689502e-001 -1.041076e+001 -3.380353e+001 -4.866110e+001  2.642718e+001  1.569385e+002 -8.409989e+000  7.633196e+001
5.3623125000e+009 -5.609901e-001 -1.051188e+001 -3.347443e+001 -5.206179e+001  2.638518e+001  1.569982e+002 -8.402004e+000  7.640136e+001
5.3624375000e+009 -5.580638e-001 -1.086037e+001 -3.375632e+001 -5.193518e+001  2.639795e+001  1.563347e+002 -8.395454e+000  7.629112e+001
5.3625625000e+009 -4.856926e-001 -1.055137e+001 -3.427854e+001 -5.007051e+001  2.640958e+001  1.558525e+002 -8.523538e+000  7.611588e+001
5.3626875000e+009 -4.622316e-001 -1.072906e+001 -3.387086e+001 -5.073079e+001  2.636061e+001  1.560679e+002 -8.446827e+000  7.652924e+001
5.3628125000e+009 -4.545102e-001 -1.077114e+001 -3.349874e+001 -5.125741e+001  2.642602e+001  1.557492e+002 -8.342427e+000  7.631809e+001
5.3629375000e+009 -3.828662e-001 -1.080286e+001 -3.343153e+001 -4.935432e+001  2.638681e+001  1.556004e+002 -8.366939e+000  7.704257e+001
5.3630625000e+009 -3.935362e-001 -1.067322e+001 -3.344273e+001 -5.364537e+001  2.636415e+001  1.558225e+002 -8.425619e+000  7.708092e+001
5.3631875000e+009 -3.967606e-001 -1.087036e+001 -3.339359e+001 -5.243329e+001  2.637338e+001  1.551996e+002 -8.387513e+000  7.692321e+001
5.3633125000e+009 -3.790840e-001 -1.078953e+001 -3.329429e+001 -5.644941e+001  2.634098e+001  1.553642e+002 -8.436329e+000  7.696449e+001
5.3634375000e+009 -3.518381e-001 -1.080463e+001 -3.372166e+001 -5.392118e+001  2.634925e+001  1.550410e+002 -8.533039e+000  7.739462e+001
5.3635625000e+009 -3.163804e-001 -1.096916e+001 -3.339622e+001 -5.147155e+001  2.634573e+001  1.551065e+002 -8.455082e+000  7.825190e+001
5.3636875000e+009 -2.782831e-001 -1.077182e+001 -3.350251e+001 -5.139866e+001  2.636048e+001  1.547456e+002 -8.432662e+000  7.839857e+001
5.3638125000e+009 -2.607257e-001 -1.101324e+001 -3.341693e+001 -5.249725e+001  2.629820e+001  1.541451e+002 -8.633111e+000  7.827457e+001
5.3639375000e+009 -2.414230e-001 -1.076995e+001 -3.338191e+001 -5.293212e+001  2.638964e+001  1.549736e+002 -8.397474e+000  7.900616e+001
5.3640625000e+009 -2.437923e-001 -1.093313e+001 -3.318143e+001 -5.515564e+001  2.633423e+001  1.539339e+002 -8.543286e+000  7.799076e+001
5.3641875000e+009 -2.053553e-001 -1.115936e+001 -3.341067e+001 -5.150679e+001  2.628402e+001  1.537817e+002 -8.660196e+000  7.894115e+001
5.3643125000e+009 -1.607623e-001 -1.111460e+001 -3.311523e+001 -5.358181e+001  2.633235e+001  1.538452e+002 -8.519055e+000  7.913342e+001
5.3644375000e+009 -1.633616e-001 -1.072547e+001 -3.369374e+001 -5.365454e+001  2.621132e+001  1.528795e+002 -8.843785e+000  7.938019e+001
5.3645625000e+009 -1.301680e-001 -1.129263e+001 -3.354536e+001 -5.489847e+001  2.623590e+001  1.535065e+002 -8.691638e+000  7.957319e+001
5.3646875000e+009 -1.067291e-001 -1.089201e+001 -3.406282e+001 -5.304948e+001  2.630542e+001  1.531550e+002 -8.710966e+000  7.970148e+001
5.3648125000e+009 -1.346513e-001 -1.097141e+001 -3.351004e+001 -5.540239e+001  2.629291e+001  1.528324e+002 -8.683750e+000  7.984042e+001
5.3649375000e+009 -9.093825e-002 -1.099360e+001 -3.385230e+001 -5.560467e+001  2.624882e+001  1.525143e+002 -8.826786e+000  7.977563e+001
5.3650625000e+009 -5.514810e-002 -1.114126e+001 -3.341096e+001 -5.396452e+001  2.633673e+001  1.527459e+002 -8.664025e+000  8.045006e+001
5.3651875000e+009 -3.048201e-002 -1.094912e+001 -3.317037e+001 -5.541634e+001  2.626485e+001  1.525982e+002 -8.624247e+000  8.047226e+001
5.3653125000e+009 -2.337130e-002 -1.131845e+001 -3.349312e+001 -5.907430e+001  2.628505e+001  1.522234e+002 -8.737259e+000  7.982874e+001
5.3654375000e+009  3.558519e-002 -1.119326e+001 -3.309194e+001 -5.376030e+001  2.631281e+001  1.523322e+002 -8.607192e+000  8.127718e+001
5.3655625000e+009  3.271304e-002 -1.110475e+001 -3.379559e+001 -5.379953e+001  2.623907e+001  1.525163e+002 -8.747827e+000  8.189590e+001
5.3656875000e+009  4.403677e-002 -1.113973e+001 -3.372249e+001 -5.736382e+001  2.612196e+001  1.512986e+002 -8.951101e+000  8.123039e+001
5.3658125000e+009  9.035466e-002 -1.108826e+001 -3.320062e+001 -5.435218e+001  2.623013e+001  1.519501e+002 -8.663821e+000  8.203615e+001
5.3659375000e+009  1.074149e-001 -1.120121e+001 -3.331086e+001 -5.451131e+001  2.618883e+001  1.513305e+002 -8.852538e+000  8.193916e+001
5.3660625000e+009  9.687772e-002 -1.117738e+001 -3.391641e+001 -5.396733e+001  2.619580e+001  1.512086e+002 -8.885334e+000  8.240167e+001
5.3661875000e+009  1.557466e-001 -1.156206e+001 -3.309748e+001 -5.703671e+001  2.628155e+001  1.511618e+002 -8.736267e+000  8.172706e+001
5.3663125000e+009  1.273302e-001 -1.133587e+001 -3.339980e+001 -5.617607e+001  2.617018e+001  1.507613e+002 -8.814265e+000  8.250005e+001
5.3664375000e+009  1.622322e-001 -1.135657e+001 -3.357086e+001 -5.447167e+001  2.605461e+001  1.500081e+002 -9.009135e+000  8.297938e+001
5.3665625000e+009  2.732485e-001 -1.152581e+001 -3.323151e+001 -5.354984e+001  2.615998e+001  1.506514e+002 -8.832776e+000  8.344588e+001
5.3666875000e+009  1.701632e-001 -1.132697e+001 -3.311454e+001 -5.187357e+001  2.618846e+001  1.508623e+002 -8.767973e+000  8.428175e+001
5.3668125000e+009  2.051552e-001 -1.180097e+001 -3.361228e+001 -5.725874e+001  2.605005e+001  1.497722e+002 -8.993588e+000  8.352367e+001
5.3669375000e+009  2.228455e-001 -1.129276e+001 -3.327552e+001 -5.770472e+001  2.622507e+001  1.505521e+002 -8.798894e+000  8.359306e+001
5.3670625000e+009  2.587947e-001 -1.146033e+001 -3.310060e+001 -5.572884e+001  2.613895e+001  1.496742e+002 -8.892296e+000  8.388976e+001
5.3671875000e+009  2.074384e-001 -1.219163e+001 -3.356789e+001 -5.905423e+001  2.612575e+001  1.498844e+002 -8.978200e+000  8.396850e+001
5.3673125000e+009  3.368077e-001 -1.162479e+001 -3.332552e+001 -5.809313e+001  2.614945e+001  1.499979e+002 -8.875686e+000  8.456246e+001
5.3674375000e+009  2.537386e-001 -1.201860e+001 -3.333709e+001 -6.108541e+001  2.613814e+001  1.492465e+002 -9.018615e+000  8.373661e+001
5.3675625000e+009  3.821412e-001 -1.191200e+001 -3.291289e+001 -5.403262e+001  2.608025e+001  1.488529e+002 -8.887256e+000  8.494851e+001
5.3676875000e+009  3.667129e-001 -1.195672e+001 -3.318805e+001 -5.716520e+001  2.618117e+001  1.490230e+002 -8.926369e+000  8.482124e+001
5.3678125000e+009  3.959849e-001 -1.170498e+001 -3.318169e+001 -5.789222e+001  2.610337e+001  1.489801e+002 -8.964672e+000  8.543501e+001
5.3679375000e+009  4.231811e-001 -1.225097e+001 -3.364128e+001 -6.170335e+001  2.605288e+001  1.481651e+002 -9.111947e+000  8.465743e+001
5.3680625000e+009  3.812160e-001 -1.205373e+001 -3.299318e+001 -5.906898e+001  2.609575e+001  1.484169e+002 -8.958451e+000  8.577362e+001
5.3681875000e+009  4.814639e-001 -1.215675e+001 -3.293809e+001 -5.613702e+001  2.613144e+001  1.488508e+002 -8.826646e+000  8.616236e+001
5.3683125000e+009  4.618385e-001 -1.183294e+001 -3.279052e+001 -5.957014e+001  2.603257e+001  1.472614e+002 -9.006067e+000  8.558299e+001
5.3684375000e+009  4.342197e-001 -1.159677e+001 -3.342271e+001 -5.977959e+001  2.612876e+001  1.477894e+002 -9.019693e+000  8.626197e+001
5.3685625000e+009  4.016075e-001 -1.283414e+001 -3.343224e+001 -5.991964e+001  2.601393e+001  1.478990e+002 -9.033328e+000  8.673920e+001
5.3686875000e+009  4.492838e-001 -1.176480e+001 -3.357203e+001 -5.814435e+001  2.599518e+001  1.479828e+002 -9.051471e+000  8.716936e+001
5.3688125000e+009  5.848218e-001 -1.263311e+001 -3.271559e+001 -6.153996e+001  2.604635e+001  1.474115e+002 -8.992729e+000  8.631676e+001
5.3689375000e+009  5.685332e-001 -1.223503e+001 -3.279092e+001 -5.566038e+001  2.598651e+001  1.477352e+002 -8.898094e+000  8.777897e+001
5.3690625000e+009  5.173672e-001 -1.257956e+001 -3.274670e+001 -6.168837e+001  2.599930e+001  1.468607e+002 -8.988196e+000  8.693343e+001
5.3691875000e+009  5.029346e-001 -1.240806e+001 -3.302757e+001 -6.061187e+001  2.599601e+001  1.464445e+002 -9.052120e+000  8.722330e+001
5.3693125000e+009  4.950744e-001 -1.276058e+001 -3.335236e+001 -6.070213e+001  2.601930e+001  1.468698e+002 -9.078163e+000  8.818363e+001
5.3694375000e+009  6.187545e-001 -1.162432e+001 -3.258089e+001 -5.942657e+001  2.596558e+001  1.470812e+002 -8.967906e+000  8.827434e+001
5.3695625000e+009  6.171042e-001 -1.265369e+001 -3.354981e+001 -6.208605e+001  2.592677e+001  1.464314e+002 -9.176379e+000  8.851437e+001
5.3696875000e+009  5.897413e-001 -1.326400e+001 -3.335904e+001 -6.123945e+001  2.598664e+001  1.459746e+002 -9.086630e+000  8.853770e+001
5.3698125000e+009  7.304762e-001 -1.261454e+001 -3.313513e+001 -5.823709e+001  2.604481e+001  1.458475e+002 -9.046929e+000  8.881678e+001
5.3699375000e+009  6.493348e-001 -1.212747e+001 -3.339718e+001 -6.053162e+001  2.601795e+001  1.454640e+002 -9.129397e+000  8.939514e+001
5.3700625000e+009  7.028297e-001 -1.255749e+001 -3.314201e+001 -6.305165e+001  2.595788e+001  1.458003e+002 -9.124933e+000  8.925546e+001
5.3701875000e+009  7.060611e-001 -1.317806e+001 -3.321236e+001 -6.106426e+001  2.601064e+001  1.457188e+002 -9.048713e+000  8.926707e+001
5.3703125000e+009  7.965186e-001 -1.200877e+001 -3.295340e+001 -6.001012e+001  2.601226e+001  1.456834e+002 -9.042932e+000  9.004769e+001
5.3704375000e+009  6.849622e-001 -1.309621e+001 -3.286112e+001 -6.551491e+001  2.597811e+001  1.453800e+002 -9.076858e+000  8.956110e+001
5.3705625000e+009  7.260110e-001 -1.403102e+001 -3.259123e+001 -6.632968e+001  2.595731e+001  1.449793e+002 -9.015299e+000  8.884451e+001
5.3706875000e+009  7.943932e-001 -1.305512e+001 -3.250896e+001 -6.266771e+001  2.589659e+001  1.450699e+002 -9.030743e+000  9.005574e+001
5.3708125000e+009  6.784205e-001 -1.319022e+001 -3.301582e+001 -6.270877e+001  2.587632e+001  1.452785e+002 -9.079473e+000  9.044243e+001
5.3709375000e+009  7.608028e-001 -1.346541e+001 -3.334195e+001 -6.186966e+001  2.593043e+001  1.441076e+002 -9.123729e+000  9.108891e+001
5.3710625000e+009  8.142292e-001 -1.310877e+001 -3.258619e+001 -5.969163e+001  2.593682e+001  1.443102e+002 -8.973583e+000  9.111913e+001
5.3711875000e+009  8.875751e-001 -1.377087e+001 -3.291166e+001 -6.228053e+001  2.582786e+001  1.447483e+002 -9.067628e+000  9.127973e+001
5.3713125000e+009  7.609187e-001 -1.275094e+001 -3.315382e+001 -6.494965e+001  2.592810e+001  1.439460e+002 -9.146502e+000  9.132770e+001
5.3714375000e+009  8.759804e-001 -1.325938e+001 -3.268941e+001 -6.079509e+001  2.589046e+001  1.439656e+002 -9.017505e+000  9.185282e+001
5.3715625000e+009  9.531586e-001 -1.377166e+001 -3.248439e+001 -6.097755e+001  2.586438e+001  1.438634e+002 -8.976660e+000  9.218505e+001
5.3716875000e+009  8.778051e-001 -1.311401e+001 -3.312576e+001 -6.371997e+001  2.583988e+001  1.433850e+002 -9.173853e+000  9.223596e+001
5.3718125000e+009  8.689154e-001 -1.378928e+001 -3.281799e+001 -6.714079e+001  2.587633e+001  1.439423e+002 -9.121067e+000  9.176582e+001
5.3719375000e+009  8.407572e-001 -1.270595e+001 -3.327531e+001 -6.343224e+001  2.586448e+001  1.437354e+002 -9.167014e+000  9.318311e+001
5.3720625000e+009  8.145077e-001 -1.344994e+001 -3.273704e+001 -6.696407e+001  2.587436e+001  1.435184e+002 -9.154598e+000  9.205601e+001
5.3721875000e+009  9.190269e-001 -1.332458e+001 -3.287292e+001 -6.387351e+001  2.579632e+001  1.430697e+002 -9.071366e+000  9.313031e+001
5.3723125000e+009  9.716268e-001 -1.336380e+001 -3.370486e+001 -6.478079e+001  2.578519e+001  1.429766e+002 -9.233259e+000  9.397162e+001
5.3724375000e+009  9.821097e-001 -1.438266e+001 -3.252085e+001 -6.608987e+001  2.580335e+001  1.426261e+002 -9.062174e+000  9.292841e+001
5.3725625000e+009  9.442644e-001 -1.400458e+001 -3.281192e+001 -6.520835e+001  2.580042e+001  1.425493e+002 -9.049535e+000  9.354327e+001
5.3726875000e+009  9.463611e-001 -1.355606e+001 -3.334811e+001 -6.349569e+001  2.573738e+001  1.427053e+002 -9.215743e+000  9.480544e+001
5.3728125000e+009  1.011560e+000 -1.430932e+001 -3.269249e+001 -6.643926e+001  2.578898e+001  1.423239e+002 -9.131573e+000  9.426103e+001
5.3729375000e+009  9.781796e-001 -1.413056e+001 -3.324001e+001 -6.607581e+001  2.570659e+001  1.421689e+002 -9.202031e+000  9.506584e+001
5.3730625000e+009  9.613433e-001 -1.456354e+001 -3.269943e+001 -6.810081e+001  2.566048e+001  1.419743e+002 -9.226029e+000  9.400096e+001
5.3731875000e+009  9.441660e-001 -1.463076e+001 -3.278736e+001 -6.779217e+001  2.575084e+001  1.417883e+002 -9.194715e+000  9.511831e+001
5.3733125000e+009  1.035145e+000 -1.422600e+001 -3.291283e+001 -6.746996e+001  2.568391e+001  1.411053e+002 -9.198784e+000  9.539009e+001
5.3734375000e+009  1.080597e+000 -1.509443e+001 -3.264279e+001 -6.810107e+001  2.567653e+001  1.415910e+002 -9.182388e+000  9.501388e+001
5.3735625000e+009  9.638546e-001 -1.404961e+001 -3.243072e+001 -6.647511e+001  2.568624e+001  1.414513e+002 -9.142125e+000  9.567683e+001
5.3736875000e+009  1.143310e+000 -1.467917e+001 -3.281665e+001 -6.635107e+001  2.567985e+001  1.412334e+002 -9.109145e+000  9.639099e+001
5.3738125000e+009  1.176889e+000 -1.479619e+001 -3.295266e+001 -6.784652e+001  2.560829e+001  1.410797e+002 -9.270159e+000  9.595899e+001
5.3739375000e+009  1.044180e+000 -1.435686e+001 -3.257588e+001 -6.418192e+001  2.570119e+001  1.410407e+002 -9.049669e+000  9.677856e+001
5.3740625000e+009  1.064113e+000 -1.414334e+001 -3.279321e+001 -7.060322e+001  2.568324e+001  1.407472e+002 -9.172187e+000  9.674215e+001
5.3741875000e+009  1.140246e+000 -1.491558e+001 -3.287895e+001 -6.588155e+001  2.563785e+001  1.406730e+002 -9.195560e+000  9.711456e+001
5.3743125000e+009  1.157238e+000 -1.509204e+001 -3.265458e+001 -7.156244e+001  2.560858e+001  1.402912e+002 -9.279160e+000  9.669392e+001
5.3744375000e+009  1.090984e+000 -1.472658e+001 -3.266004e+001 -6.948717e+001  2.559142e+001  1.403295e+002 -9.160031e+000  9.705383e+001
5.3745625000e+009  1.076438e+000 -1.497693e+001 -3.265621e+001 -6.820566e+001  2.549511e+001  1.399658e+002 -9.228405e+000  9.710589e+001
5.3746875000e+009  1.127657e+000 -1.504365e+001 -3.301953e+001 -6.599883e+001  2.561123e+001  1.400290e+002 -9.144909e+000  9.871809e+001
5.3748125000e+009  1.061064e+000 -1.472180e+001 -3.330627e+001 -6.774493e+001  2.556495e+001  1.398310e+002 -9.147296e+000  9.865627e+001
5.3749375000e+009  1.241596e+000 -1.516603e+001 -3.298495e+001 -6.272234e+001  2.556885e+001  1.397861e+002 -9.067439e+000  9.913035e+001
5.3750625000e+009  1.018359e+000 -1.530653e+001 -3.284313e+001 -6.434556e+001  2.552712e+001  1.395634e+002 -9.086978e+000  9.946216e+001
5.3751875000e+009  1.066118e+000 -1.490899e+001 -3.273224e+001 -7.215747e+001  2.554785e+001  1.395125e+002 -9.225225e+000  9.875573e+001
5.3753125000e+009  1.234534e+000 -1.588168e+001 -3.267828e+001 -6.913510e+001  2.543211e+001  1.390201e+002 -9.323293e+000  9.835394e+001
5.3754375000e+009  1.012503e+000 -1.524720e+001 -3.322828e+001 -7.195504e+001  2.549407e+001  1.391716e+002 -9.343284e+000  9.961651e+001
5.3755625000e+009  1.045732e+000 -1.514238e+001 -3.398613e+001 -7.272222e+001  2.547255e+001  1.392356e+002 -9.400682e+000  1.008091e+002
5.3756875000e+009  1.158196e+000 -1.573418e+001 -3.257932e+001 -6.750035e+001  2.543354e+001  1.387647e+002 -9.214504e+000  9.949267e+001
5.3758125000e+009  1.235638e+000 -1.544240e+001 -3.250386e+001 -6.948788e+001  2.545618e+001  1.385518e+002 -9.250588e+000  1.000604e+002
5.3759375000e+009  9.536808e-001 -1.533771e+001 -3.313403e+001 -6.887144e+001  2.537010e+001  1.384937e+002 -9.392378e+000  1.009357e+002
5.3760625000e+009  1.139278e+000 -1.633938e+001 -3.260296e+001 -7.189562e+001  2.533946e+001  1.380446e+002 -9.497391e+000  1.005906e+002
5.3761875000e+009  1.220054e+000 -1.669721e+001 -3.288990e+001 -6.949546e+001  2.537809e+001  1.378767e+002 -9.363296e+000  1.012923e+002
5.3763125000e+009  1.144676e+000 -1.685892e+001 -3.221427e+001 -7.193459e+001  2.536021e+001  1.379575e+002 -9.427403e+000  1.006561e+002
5.3764375000e+009  1.184555e+000 -1.632135e+001 -3.264765e+001 -7.109425e+001  2.533397e+001  1.376107e+002 -9.508039e+000  1.006090e+002
5.3765625000e+009  1.149840e+000 -1.668887e+001 -3.358043e+001 -7.230145e+001  2.530542e+001  1.377430e+002 -9.613450e+000  1.036646e+002
5.3766875000e+009  9.793116e-001 -1.649196e+001 -3.273869e+001 -7.332110e+001  2.526176e+001  1.376891e+002 -9.557388e+000  1.023837e+002
5.3768125000e+009  1.135567e+000 -1.690455e+001 -3.241892e+001 -7.274353e+001  2.525280e+001  1.371163e+002 -9.674209e+000  1.020626e+002
5.3769375000e+009  1.415590e+000 -1.703667e+001 -3.343053e+001 -7.824162e+001  2.527253e+001  1.369061e+002 -9.764354e+000  1.038841e+002
5.3770625000e+009  1.264475e+000 -1.733154e+001 -3.256384e+001 -7.125754e+001  2.518713e+001  1.369939e+002 -9.541492e+000  1.039387e+002
5.3771875000e+009  1.185313e+000 -1.809382e+001 -3.266593e+001 -7.352319e+001  2.520675e+001  1.365865e+002 -9.702290e+000  1.029870e+002
5.3773125000e+009  1.266749e+000 -1.829418e+001 -3.261606e+001 -7.437014e+001  2.515120e+001  1.363353e+002 -9.780509e+000  1.045872e+002
5.3774375000e+009  1.211452e+000 -1.763381e+001 -3.267883e+001 -7.404279e+001  2.517419e+001  1.363113e+002 -9.752298e+000  1.041648e+002
5.3775625000e+009  1.121463e+000 -1.848788e+001 -3.251825e+001 -7.243439e+001  2.517209e+001  1.362047e+002 -9.648096e+000  1.034128e+002
5.3776875000e+009  1.298227e+000 -1.867554e+001 -3.199416e+001 -7.309779e+001  2.509103e+001  1.357158e+002 -9.794891e+000  1.042160e+002
5.3778125000e+009  1.245178e+000 -1.877453e+001 -3.277118e+001 -7.373113e+001  2.513295e+001  1.358877e+002 -9.781886e+000  1.047861e+002
5.3779375000e+009  1.355405e+000 -1.873056e+001 -3.262900e+001 -7.744234e+001  2.511783e+001  1.354135e+002 -9.931493e+000  1.047018e+002
5.3780625000e+009  1.460830e+000 -1.931184e+001 -3.271376e+001 -7.421004e+001  2.507827e+001  1.352226e+002 -9.852378e+000  1.056049e+002
5.3781875000e+009  1.284886e+000 -1.950144e+001 -3.271688e+001 -7.533995e+001  2.504527e+001  1.353335e+002 -9.856742e+000  1.058921e+002
5.3783125000e+009  1.195710e+000 -1.947700e+001 -3.224726e+001 -7.956551e+001  2.500786e+001  1.349740e+002 -1.006859e+001  1.053873e+002
5.3784375000e+009  1.332473e+000 -1.999326e+001 -3.222845e+001 -7.142268e+001  2.500272e+001  1.352052e+002 -9.744814e+000  1.062096e+002
5.3785625000e+009  1.190552e+000 -1.987670e+001 -3.291216e+001 -8.104015e+001  2.498865e+001  1.350424e+002 -1.010740e+001  1.065703e+002
5.3786875000e+009  1.397798e+000 -2.010419e+001 -3.274237e+001 -7.578584e+001  2.506356e+001  1.344518e+002 -1.005146e+001  1.059611e+002
5.3788125000e+009  1.421316e+000 -1.987666e+001 -3.245247e+001 -7.570221e+001  2.493890e+001  1.345955e+002 -9.969856e+000  1.073639e+002
5.3789375000e+009  1.268543e+000 -2.083565e+001 -3.231596e+001 -7.363998e+001  2.491526e+001  1.346543e+002 -9.903139e+000  1.072588e+002
5.3790625000e+009  1.439452e+000 -2.046682e+001 -3.189049e+001 -7.516233e+001  2.490191e+001  1.342383e+002 -9.986780e+000  1.074375e+002
5.3791875000e+009  1.486829e+000 -2.033974e+001 -3.261079e+001 -7.548370e+001  2.484026e+001  1.338915e+002 -1.008036e+001  1.089668e+002
5.3793125000e+009  1.334123e+000 -2.120260e+001 -3.273471e+001 -7.630877e+001  2.480694e+001  1.342038e+002 -9.966492e+000  1.090012e+002
5.3794375000e+009  1.450170e+000 -2.101623e+001 -3.183709e+001 -7.730891e+001  2.486199e+001  1.337926e+002 -1.012366e+001  1.073711e+002
5.3795625000e+009  1.442236e+000 -2.046342e+001 -3.213213e+001 -7.719505e+001  2.485876e+001  1.335196e+002 -1.017778e+001  1.082859e+002
5.3796875000e+009  1.268295e+000 -2.173742e+001 -3.296290e+001 -7.796363e+001  2.478080e+001  1.336230e+002 -1.018275e+001  1.096973e+002
5.3798125000e+009  1.364111e+000 -2.142259e+001 -3.336027e+001 -7.736049e+001  2.475829e+001  1.332457e+002 -1.022881e+001  1.111135e+002
5.3799375000e+009  1.389531e+000 -2.189058e+001 -3.191191e+001 -7.778201e+001  2.476577e+001  1.333833e+002 -1.016708e+001  1.087718e+002
5.3800625000e+009  1.265040e+000 -2.202289e+001 -3.242699e+001 -8.099652e+001  2.470943e+001  1.331503e+002 -1.037898e+001  1.099693e+002
5.3801875000e+009  1.440020e+000 -2.198729e+001 -3.247013e+001 -8.457392e+001  2.476034e+001  1.328548e+002 -1.050703e+001  1.105494e+002
5.3803125000e+009  1.377572e+000 -2.187775e+001 -3.256491e+001 -7.780663e+001  2.472900e+001  1.327966e+002 -1.028260e+001  1.103163e+002
5.3804375000e+009  1.301675e+000 -2.283038e+001 -3.212135e+001 -7.913943e+001  2.464847e+001  1.327783e+002 -1.040349e+001  1.106416e+002
5.3805625000e+009  1.338907e+000 -2.333640e+001 -3.190574e+001 -8.409633e+001  2.464564e+001  1.329171e+002 -1.042968e+001  1.100928e+002
5.3806875000e+009  1.372752e+000 -2.294803e+001 -3.211148e+001 -7.884863e+001  2.458560e+001  1.324002e+002 -1.038307e+001  1.114962e+002
5.3808125000e+009  1.278321e+000 -2.346300e+001 -3.249522e+001 -8.273359e+001  2.454821e+001  1.322881e+002 -1.049884e+001  1.124154e+002
5.3809375000e+009  1.404181e+000 -2.365990e+001 -3.230534e+001 -7.962753e+001  2.458690e+001  1.319233e+002 -1.044811e+001  1.115596e+002
5.3810625000e+009  1.442025e+000 -2.267519e+001 -3.235929e+001 -7.983793e+001  2.452754e+001  1.315108e+002 -1.052862e+001  1.130179e+002
5.3811875000e+009  1.346829e+000 -2.388865e+001 -3.194934e+001 -8.242067e+001  2.455257e+001  1.316797e+002 -1.061868e+001  1.117539e+002
5.3813125000e+009  1.405346e+000 -2.369158e+001 -3.275736e+001 -8.144234e+001  2.457887e+001  1.316812e+002 -1.044903e+001  1.128707e+002
5.3814375000e+009  1.487339e+000 -2.355026e+001 -3.304217e+001 -7.994356e+001  2.453691e+001  1.315367e+002 -1.041431e+001  1.138094e+002
5.3815625000e+009  1.348629e+000 -2.399740e+001 -3.260118e+001 -8.509834e+001  2.447181e+001  1.313865e+002 -1.062115e+001  1.139389e+002
5.3816875000e+009  1.442569e+000 -2.382064e+001 -3.242506e+001 -8.154082e+001  2.456469e+001  1.319439e+002 -1.046227e+001  1.127058e+002
5.3818125000e+009  1.490380e+000 -2.432497e+001 -3.148929e+001 -8.137474e+001  2.460252e+001  1.314613e+002 -1.058482e+001  1.112334e+002
5.3819375000e+009  1.432602e+000 -2.470657e+001 -3.248853e+001 -8.450858e+001  2.438218e+001  1.306026e+002 -1.081838e+001  1.147375e+002
5.3820625000e+009  1.433673e+000 -2.463360e+001 -3.224693e+001 -8.906232e+001  2.443971e+001  1.311992e+002 -1.079829e+001  1.144428e+002
5.3821875000e+009  1.464943e+000 -2.465741e+001 -3.184648e+001 -8.208701e+001  2.430354e+001  1.306821e+002 -1.067147e+001  1.146120e+002
5.3823125000e+009  1.406713e+000 -2.503107e+001 -3.211436e+001 -8.703812e+001  2.436964e+001  1.306401e+002 -1.084474e+001  1.147579e+002
5.3824375000e+009  1.454470e+000 -2.492233e+001 -3.282193e+001 -8.734635e+001  2.437634e+001  1.307076e+002 -1.078951e+001  1.159562e+002
5.3825625000e+009  1.499899e+000 -2.504557e+001 -3.173851e+001 -8.392426e+001  2.431598e+001  1.305582e+002 -1.080933e+001  1.145061e+002
5.3826875000e+009  1.554299e+000 -2.523579e+001 -3.294812e+001 -8.345653e+001  2.418869e+001  1.297452e+002 -1.073788e+001  1.178026e+002
5.3828125000e+009  1.420491e+000 -2.591350e+001 -3.179002e+001 -8.653818e+001  2.423974e+001  1.296265e+002 -1.103470e+001  1.156856e+002
5.3829375000e+009  1.553896e+000 -2.568736e+001 -3.277670e+001 -8.905055e+001  2.425054e+001  1.299822e+002 -1.091109e+001  1.174339e+002
5.3830625000e+009  1.580371e+000 -2.607040e+001 -3.174480e+001 -8.331725e+001  2.417540e+001  1.296416e+002 -1.087267e+001  1.162886e+002
5.3831875000e+009  1.550363e+000 -2.555329e+001 -3.282445e+001 -8.319493e+001  2.421183e+001  1.294573e+002 -1.081690e+001  1.179463e+002
5.3833125000e+009  1.535176e+000 -2.579941e+001 -3.208305e+001 -8.855151e+001  2.415244e+001  1.294958e+002 -1.103212e+001  1.174395e+002
5.3834375000e+009  1.552450e+000 -2.633973e+001 -3.192284e+001 -8.432699e+001  2.399780e+001  1.280074e+002 -1.111992e+001  1.187541e+002
5.3835625000e+009  1.576031e+000 -2.636480e+001 -3.241198e+001 -8.862167e+001  2.415305e+001  1.294601e+002 -1.098033e+001  1.182091e+002
5.3836875000e+009  1.539020e+000 -2.590951e+001 -3.222301e+001 -9.208700e+001  2.407240e+001  1.294638e+002 -1.112590e+001  1.190603e+002
5.3838125000e+009  1.599486e+000 -2.638550e+001 -3.186361e+001 -8.276990e+001  2.407942e+001  1.292723e+002 -1.087683e+001  1.175412e+002
5.3839375000e+009  1.591232e+000 -2.653473e+001 -3.216662e+001 -8.696427e+001  2.395412e+001  1.289870e+002 -1.096052e+001  1.197260e+002
5.3840625000e+009  1.567766e+000 -2.651585e+001 -3.201582e+001 -8.787238e+001  2.398095e+001  1.280789e+002 -1.120754e+001  1.196006e+002
5.3841875000e+009  1.634720e+000 -2.669322e+001 -3.187071e+001 -8.937021e+001  2.395789e+001  1.285120e+002 -1.116886e+001  1.199256e+002
5.3843125000e+009  1.629301e+000 -2.694830e+001 -3.125169e+001 -8.416190e+001  2.402381e+001  1.281877e+002 -1.115511e+001  1.177260e+002
5.3844375000e+009  1.574024e+000 -2.699395e+001 -3.232944e+001 -8.903617e+001  2.391897e+001  1.287348e+002 -1.109564e+001  1.208381e+002
5.3845625000e+009  1.652334e+000 -2.729533e+001 -3.183533e+001 -8.655745e+001  2.391475e+001  1.280513e+002 -1.117587e+001  1.201438e+002
5.3846875000e+009  1.603099e+000 -2.725078e+001 -3.180446e+001 -9.515604e+001  2.385350e+001  1.289112e+002 -1.123939e+001  1.215551e+002
5.3848125000e+009  1.609070e+000 -2.752888e+001 -3.187234e+001 -9.002541e+001  2.388177e+001  1.280305e+002 -1.127936e+001  1.210654e+002
5.3849375000e+009  1.698900e+000 -2.782135e+001 -3.207249e+001 -9.091746e+001  2.381213e+001  1.266360e+002 -1.139638e+001  1.224638e+002
5.3850625000e+009  1.713750e+000 -2.759942e+001 -3.176814e+001 -8.638586e+001  2.382167e+001  1.278885e+002 -1.115189e+001  1.209808e+002
5.3851875000e+009  1.611133e+000 -2.779490e+001 -3.186739e+001 -9.322947e+001  2.377741e+001  1.273378e+002 -1.141547e+001  1.226636e+002
5.3853125000e+009  1.738021e+000 -2.811670e+001 -3.137600e+001 -8.758974e+001  2.379296e+001  1.267004e+002 -1.144821e+001  1.210412e+002
5.3854375000e+009  1.698132e+000 -2.818178e+001 -3.175167e+001 -9.017122e+001  2.381227e+001  1.271213e+002 -1.141990e+001  1.218257e+002
5.3855625000e+009  1.672857e+000 -2.817461e+001 -3.237954e+001 -9.233965e+001  2.374001e+001  1.274292e+002 -1.127342e+001  1.234262e+002
5.3856875000e+009  1.760054e+000 -2.816159e+001 -3.214378e+001 -8.908062e+001  2.371517e+001  1.256464e+002 -1.145889e+001  1.237342e+002
5.3858125000e+009  1.688942e+000 -2.797783e+001 -3.180007e+001 -9.136423e+001  2.369515e+001  1.263696e+002 -1.153194e+001  1.239375e+002
5.3859375000e+009  1.735862e+000 -2.798393e+001 -3.177719e+001 -8.970773e+001  2.372288e+001  1.260708e+002 -1.150172e+001  1.233256e+002
5.3860625000e+009  1.740538e+000 -2.836171e+001 -3.124547e+001 -8.681142e+001  2.359951e+001  1.266151e+002 -1.136582e+001  1.227167e+002
5.3861875000e+009  1.703985e+000 -2.831500e+001 -3.245894e+001 -9.188380e+001  2.363960e+001  1.269673e+002 -1.133790e+001  1.248339e+002
5.3863125000e+009  1.778737e+000 -2.878820e+001 -3.115470e+001 -8.794321e+001  2.359997e+001  1.263793e+002 -1.145010e+001  1.224769e+002
5.3864375000e+009  1.856350e+000 -2.815718e+001 -3.161843e+001 -9.419762e+001  2.363710e+001  1.260057e+002 -1.169218e+001  1.246851e+002
5.3865625000e+009  1.808706e+000 -2.874338e+001 -3.135079e+001 -9.725594e+001  2.350994e+001  1.265705e+002 -1.158579e+001  1.256370e+002
5.3866875000e+009  1.852329e+000 -2.861017e+001 -3.203917e+001 -9.239216e+001  2.352135e+001  1.256676e+002 -1.146273e+001  1.258106e+002
5.3868125000e+009  1.819258e+000 -2.819681e+001 -3.175593e+001 -9.662157e+001  2.357849e+001  1.251447e+002 -1.182303e+001  1.264561e+002
5.3869375000e+009  1.773556e+000 -2.970741e+001 -3.111996e+001 -9.281241e+001  2.349424e+001  1.252395e+002 -1.179525e+001  1.250914e+002
5.3870625000e+009  1.871007e+000 -2.923771e+001 -3.138043e+001 -8.993243e+001  2.337488e+001  1.254430e+002 -1.149036e+001  1.257968e+002
5.3871875000e+009  1.932759e+000 -2.909302e+001 -3.157856e+001 -9.164333e+001  2.347592e+001  1.247189e+002 -1.169941e+001  1.260342e+002
5.3873125000e+009  1.916456e+000 -2.964981e+001 -3.152592e+001 -9.544427e+001  2.338328e+001  1.250571e+002 -1.167978e+001  1.273970e+002
5.3874375000e+009  1.828859e+000 -3.014746e+001 -3.139496e+001 -9.550511e+001  2.335379e+001  1.251543e+002 -1.173349e+001  1.275109e+002
5.3875625000e+009  1.853848e+000 -2.944326e+001 -3.182116e+001 -9.515010e+001  2.347001e+001  1.242852e+002 -1.182453e+001  1.275415e+002
5.3876875000e+009  2.025068e+000 -2.873732e+001 -3.150914e+001 -9.367027e+001  2.340287e+001  1.244616e+002 -1.177094e+001  1.275221e+002
5.3878125000e+009  1.858141e+000 -2.956195e+001 -3.126630e+001 -9.157247e+001  2.329560e+001  1.248862e+002 -1.165373e+001  1.272911e+002
5.3879375000e+009  1.794168e+000 -3.020461e+001 -3.155446e+001 -9.403775e+001  2.330315e+001  1.245227e+002 -1.181368e+001  1.280247e+002
5.3880625000e+009  1.872906e+000 -3.095488e+001 -3.162673e+001 -9.389666e+001  2.319469e+001  1.248702e+002 -1.165081e+001  1.288582e+002
5.3881875000e+009  1.884347e+000 -3.167764e+001 -3.117870e+001 -9.143369e+001  2.320524e+001  1.244391e+002 -1.181344e+001  1.279220e+002
5.3883125000e+009  1.914480e+000 -3.074053e+001 -3.184153e+001 -9.660921e+001  2.325267e+001  1.239017e+002 -1.185949e+001  1.301379e+002
5.3884375000e+009  1.851653e+000 -3.188476e+001 -3.149548e+001 -9.648535e+001  2.312273e+001  1.246784e+002 -1.180383e+001  1.299119e+002
5.3885625000e+009  1.913736e+000 -3.263951e+001 -3.119708e+001 -9.628357e+001  2.313890e+001  1.239625e+002 -1.206859e+001  1.303934e+002
5.3886875000e+009  1.902270e+000 -3.289521e+001 -3.159849e+001 -9.868800e+001  2.312116e+001  1.238018e+002 -1.202549e+001  1.314803e+002
5.3888125000e+009  1.842016e+000 -3.192709e+001 -3.158873e+001 -9.377217e+001  2.301881e+001  1.244368e+002 -1.178269e+001  1.310398e+002
5.3889375000e+009  2.032369e+000 -3.316905e+001 -3.217433e+001 -9.774780e+001  2.301559e+001  1.234432e+002 -1.191230e+001  1.330677e+002
5.3890625000e+009  1.866454e+000 -3.374417e+001 -3.140891e+001 -9.722768e+001  2.305839e+001  1.239627e+002 -1.212085e+001  1.314208e+002
5.3891875000e+009  1.951353e+000 -3.497921e+001 -3.177414e+001 -9.719146e+001  2.284649e+001  1.234536e+002 -1.192100e+001  1.342005e+002
5.3893125000e+009  1.905260e+000 -3.324535e+001 -3.162994e+001 -9.791821e+001  2.289470e+001  1.242667e+002 -1.193970e+001  1.334260e+002
5.3894375000e+009  1.910765e+000 -3.384470e+001 -3.177996e+001 -1.057959e+002  2.293917e+001  1.242075e+002 -1.204968e+001  1.352481e+002
5.3895625000e+009  1.730815e+000 -3.539954e+001 -3.182863e+001 -9.828587e+001  2.274169e+001  1.242222e+002 -1.184786e+001  1.349547e+002
5.3896875000e+009  1.941190e+000 -3.606465e+001 -3.140281e+001 -9.657390e+001  2.277271e+001  1.235187e+002 -1.209260e+001  1.344523e+002
5.3898125000e+009  1.906415e+000 -3.526283e+001 -3.188428e+001 -9.754803e+001  2.276986e+001  1.236073e+002 -1.199810e+001  1.347049e+002
5.3899375000e+009  1.891022e+000 -3.622482e+001 -3.119052e+001 -1.013155e+002  2.267634e+001  1.238149e+002 -1.210841e+001  1.360065e+002
5.3900625000e+009  1.891494e+000 -3.762146e+001 -3.159086e+001 -9.935338e+001  2.263133e+001  1.235772e+002 -1.199791e+001  1.355998e+002
5.3901875000e+009  1.926708e+000 -3.699424e+001 -3.144381e+001 -9.938152e+001  2.258991e+001  1.239068e+002 -1.198217e+001  1.358943e+002
5.3903125000e+009  1.963503e+000 -3.930431e+001 -3.076936e+001 -1.028136e+002  2.251522e+001  1.237661e+002 -1.216640e+001  1.363744e+002
5.3904375000e+009  2.005212e+000 -3.678735e+001 -3.200520e+001 -9.818478e+001  2.263303e+001  1.233596e+002 -1.194794e+001  1.363073e+002
5.3905625000e+009  1.782392e+000 -3.721825e+001 -3.194979e+001 -1.017085e+002  2.260909e+001  1.237309e+002 -1.199871e+001  1.370052e+002
5.3906875000e+009  1.933806e+000 -3.747948e+001 -3.135239e+001 -9.766527e+001  2.250122e+001  1.234012e+002 -1.195421e+001  1.365831e+002
5.3908125000e+009  1.844358e+000 -3.925918e+001 -3.123050e+001 -1.038150e+002  2.251259e+001  1.239982e+002 -1.212703e+001  1.370612e+002
5.3909375000e+009  1.912918e+000 -3.796440e+001 -3.206934e+001 -1.020302e+002  2.254745e+001  1.236498e+002 -1.195859e+001  1.371557e+002
5.3910625000e+009  2.010945e+000 -4.024137e+001 -3.106114e+001 -1.032223e+002  2.228215e+001  1.235189e+002 -1.205273e+001  1.390681e+002
5.3911875000e+009  2.021938e+000 -4.092075e+001 -3.186572e+001 -1.060081e+002  2.230061e+001  1.238213e+002 -1.180865e+001  1.389390e+002
5.3913125000e+009  1.810279e+000 -3.946243e+001 -3.154978e+001 -1.032671e+002  2.239280e+001  1.237575e+002 -1.206124e+001  1.381257e+002
5.3914375000e+009  1.971471e+000 -3.986379e+001 -3.149057e+001 -1.060781e+002  2.236638e+001  1.238046e+002 -1.195755e+001  1.380155e+002
5.3915625000e+009  1.787618e+000 -3.796256e+001 -3.191316e+001 -1.038786e+002  2.240369e+001  1.240961e+002 -1.184853e+001  1.374421e+002
5.3916875000e+009  1.981169e+000 -4.084513e+001 -3.147103e+001 -9.889368e+001  2.232970e+001  1.243013e+002 -1.204253e+001  1.351959e+002
5.3918125000e+009  1.951858e+000 -3.905689e+001 -3.210612e+001 -1.056634e+002  2.229064e+001  1.242214e+002 -1.174044e+001  1.379422e+002
5.3919375000e+009  2.023437e+000 -4.118863e+001 -3.116149e+001 -1.050153e+002  2.220750e+001  1.240667e+002 -1.201504e+001  1.377413e+002
5.3920625000e+009  1.830977e+000 -4.166845e+001 -3.169349e+001 -1.080696e+002  2.220816e+001  1.246158e+002 -1.192902e+001  1.381011e+002
5.3921875000e+009  2.117618e+000 -4.124251e+001 -3.163802e+001 -1.023707e+002  2.220879e+001  1.241107e+002 -1.199548e+001  1.363199e+002
5.3923125000e+009  2.073860e+000 -4.246385e+001 -3.198126e+001 -1.056242e+002  2.215272e+001  1.243938e+002 -1.186231e+001  1.365978e+002
5.3924375000e+009  2.086941e+000 -4.193760e+001 -3.164919e+001 -1.041673e+002  2.219306e+001  1.243844e+002 -1.215472e+001  1.350254e+002
5.3925625000e+009  2.091539e+000 -4.221036e+001 -3.159906e+001 -1.036611e+002  2.217543e+001  1.246371e+002 -1.214942e+001  1.352556e+002
5.3926875000e+009  2.104949e+000 -4.217889e+001 -3.161335e+001 -1.071977e+002  2.214831e+001  1.243922e+002 -1.221304e+001  1.368000e+002
5.3928125000e+009  2.136810e+000 -4.221591e+001 -3.152539e+001 -9.833363e+001  2.214848e+001  1.244828e+002 -1.221581e+001  1.338197e+002
5.3929375000e+009  1.831433e+000 -4.224582e+001 -3.152087e+001 -1.089959e+002  2.216636e+001  1.248303e+002 -1.241436e+001  1.371902e+002
5.3930625000e+009  2.167016e+000 -4.315562e+001 -3.121681e+001 -1.068670e+002  2.212276e+001  1.243853e+002 -1.259649e+001  1.361755e+002
5.3931875000e+009  2.224235e+000 -4.320960e+001 -3.116370e+001 -1.049930e+002  2.213541e+001  1.243950e+002 -1.268970e+001  1.354343e+002
5.3933125000e+009  2.246672e+000 -4.410410e+001 -3.113890e+001 -1.074520e+002  2.207313e+001  1.243964e+002 -1.262595e+001  1.361519e+002
5.3934375000e+009  2.424061e+000 -4.449177e+001 -3.086347e+001 -1.077114e+002  2.202705e+001  1.238421e+002 -1.283334e+001  1.369029e+002
5.3935625000e+009  2.315876e+000 -4.520486e+001 -3.100070e+001 -1.084891e+002  2.206739e+001  1.242915e+002 -1.283540e+001  1.362036e+002
5.3936875000e+009  2.455438e+000 -4.535184e+001 -3.071441e+001 -1.051649e+002  2.199169e+001  1.238663e+002 -1.309086e+001  1.367774e+002
5.3938125000e+009  2.336417e+000 -4.496793e+001 -3.032731e+001 -1.090375e+002  2.200709e+001  1.239967e+002 -1.324385e+001  1.379368e+002
5.3939375000e+009  2.341631e+000 -4.464938e+001 -3.125919e+001 -1.069380e+002  2.202559e+001  1.239819e+002 -1.296667e+001  1.370932e+002
5.3940625000e+009  2.347440e+000 -4.581590e+001 -3.105636e+001 -1.079279e+002  2.196369e+001  1.237299e+002 -1.320070e+001  1.393083e+002
5.3941875000e+009  2.510254e+000 -4.534455e+001 -3.082837e+001 -1.093466e+002  2.198724e+001  1.236889e+002 -1.322039e+001  1.374775e+002
5.3943125000e+009  2.265661e+000 -4.612543e+001 -3.111976e+001 -1.107349e+002  2.196825e+001  1.240663e+002 -1.311585e+001  1.390044e+002
5.3944375000e+009  2.453367e+000 -4.586459e+001 -3.101626e+001 -1.113617e+002  2.193126e+001  1.235575e+002 -1.323127e+001  1.397857e+002
5.3945625000e+009  2.784322e+000 -4.778273e+001 -2.993251e+001 -1.153050e+002  2.180939e+001  1.232305e+002 -1.360192e+001  1.417308e+002
5.3946875000e+009  3.117813e+000 -4.793606e+001 -3.049925e+001 -1.084430e+002  2.178399e+001  1.228665e+002 -1.353183e+001  1.385178e+002
5.3948125000e+009  2.781454e+000 -4.683586e+001 -3.033224e+001 -1.069466e+002  2.185215e+001  1.231187e+002 -1.362425e+001  1.383889e+002
5.3949375000e+009  2.984416e+000 -4.908998e+001 -3.082689e+001 -1.114012e+002  2.175037e+001  1.229590e+002 -1.344812e+001  1.401575e+002
5.3950625000e+009  2.739872e+000 -4.809354e+001 -3.120841e+001 -1.115764e+002  2.179172e+001  1.233698e+002 -1.335661e+001  1.403477e+002
5.3951875000e+009  2.666410e+000 -4.757915e+001 -3.088641e+001 -1.096159e+002  2.180525e+001  1.231455e+002 -1.348594e+001  1.407311e+002
5.3953125000e+009  3.114792e+000 -4.775875e+001 -3.005344e+001 -1.123090e+002  2.172592e+001  1.225771e+002 -1.383432e+001  1.421160e+002
5.3954375000e+009  2.767454e+000 -4.900476e+001 -3.055458e+001 -1.120805e+002  2.170455e+001  1.233218e+002 -1.370241e+001  1.413781e+002
5.3955625000e+009  2.858578e+000 -4.894894e+001 -3.078825e+001 -1.097009e+002  2.171106e+001  1.229289e+002 -1.365926e+001  1.419125e+002
5.3956875000e+009  3.222333e+000 -4.922351e+001 -2.973096e+001 -1.062759e+002  2.164599e+001  1.223264e+002 -1.414231e+001  1.402658e+002
5.3958125000e+009  2.823579e+000 -4.938879e+001 -3.078416e+001 -1.119314e+002  2.167773e+001  1.229451e+002 -1.365107e+001  1.420694e+002
5.3959375000e+009  2.779666e+000 -4.866131e+001 -3.095678e+001 -1.154331e+002  2.168636e+001  1.229582e+002 -1.357724e+001  1.420321e+002
5.3960625000e+009  3.497192e+000 -5.011508e+001 -3.009717e+001 -1.133387e+002  2.154425e+001  1.218593e+002 -1.388902e+001  1.437659e+002
5.3961875000e+009  3.225998e+000 -4.973620e+001 -3.015638e+001 -1.133186e+002  2.160540e+001  1.221372e+002 -1.381573e+001  1.433637e+002
5.3963125000e+009  2.791858e+000 -5.010235e+001 -3.059847e+001 -1.110321e+002  2.163054e+001  1.230927e+002 -1.388005e+001  1.429524e+002
5.3964375000e+009  3.631172e+000 -5.097342e+001 -3.023847e+001 -1.114048e+002  2.144867e+001  1.217651e+002 -1.398269e+001  1.434791e+002
5.3965625000e+009  3.010100e+000 -5.279794e+001 -3.086924e+001 -1.133569e+002  2.147819e+001  1.231872e+002 -1.369399e+001  1.427178e+002
5.3966875000e+009  3.005555e+000 -5.148642e+001 -3.066472e+001 -1.192947e+002  2.151273e+001  1.227142e+002 -1.364003e+001  1.450659e+002
5.3968125000e+009  3.395250e+000 -5.166722e+001 -3.037959e+001 -1.103095e+002  2.144505e+001  1.220942e+002 -1.397038e+001  1.437902e+002
5.3969375000e+009  3.086431e+000 -5.133474e+001 -3.050851e+001 -1.138936e+002  2.154292e+001  1.225051e+002 -1.381069e+001  1.436055e+002
5.3970625000e+009  3.253159e+000 -5.263090e+001 -2.957689e+001 -1.122361e+002  2.142796e+001  1.227539e+002 -1.426344e+001  1.459878e+002
5.3971875000e+009  3.666337e+000 -5.236107e+001 -2.976373e+001 -1.122197e+002  2.141000e+001  1.219933e+002 -1.412973e+001  1.459939e+002
5.3973125000e+009  3.995235e+000 -5.311851e+001 -2.939682e+001 -1.135342e+002  2.128052e+001  1.214746e+002 -1.430761e+001  1.460528e+002
5.3974375000e+009  3.524309e+000 -5.358521e+001 -2.999647e+001 -1.175066e+002  2.133727e+001  1.224583e+002 -1.391458e+001  1.471506e+002
5.3975625000e+009  3.562730e+000 -5.323939e+001 -3.039365e+001 -1.141610e+002  2.136075e+001  1.223045e+002 -1.395692e+001  1.451357e+002
5.3976875000e+009  3.137674e+000 -5.357992e+001 -3.097690e+001 -1.174041e+002  2.135786e+001  1.231197e+002 -1.364791e+001  1.455707e+002
5.3978125000e+009  3.496192e+000 -5.294049e+001 -3.015509e+001 -1.123369e+002  2.131452e+001  1.221546e+002 -1.403152e+001  1.447311e+002
5.3979375000e+009  4.097484e+000 -5.364762e+001 -2.987905e+001 -1.160882e+002  2.117685e+001  1.213931e+002 -1.408725e+001  1.470430e+002
5.3980625000e+009  3.979879e+000 -5.478043e+001 -2.983449e+001 -1.193681e+002  2.118081e+001  1.212196e+002 -1.391893e+001  1.463698e+002
5.3981875000e+009  3.450539e+000 -5.505004e+001 -2.980263e+001 -1.145034e+002  2.122242e+001  1.224470e+002 -1.422571e+001  1.459794e+002
5.3983125000e+009  3.929344e+000 -5.528902e+001 -2.972600e+001 -1.167053e+002  2.112074e+001  1.218433e+002 -1.419133e+001  1.470959e+002
5.3984375000e+009  3.999876e+000 -5.530114e+001 -2.979929e+001 -1.189748e+002  2.113636e+001  1.218278e+002 -1.400441e+001  1.474270e+002
5.3985625000e+009  3.448237e+000 -5.654383e+001 -2.969279e+001 -1.218620e+002  2.122081e+001  1.227365e+002 -1.388843e+001  1.481066e+002
5.3986875000e+009  4.126628e+000 -5.371285e+001 -2.970863e+001 -1.161900e+002  2.117565e+001  1.210222e+002 -1.419423e+001  1.471283e+002
5.3988125000e+009  3.991864e+000 -5.660080e+001 -3.026991e+001 -1.157962e+002  2.109114e+001  1.215258e+002 -1.399701e+001  1.451411e+002
5.3989375000e+009  3.885693e+000 -5.551455e+001 -3.002710e+001 -1.192531e+002  2.113928e+001  1.215986e+002 -1.387893e+001  1.472469e+002
5.3990625000e+009  4.201527e+000 -5.529528e+001 -2.986909e+001 -1.167717e+002  2.114392e+001  1.210073e+002 -1.404872e+001  1.468964e+002
5.3991875000e+009  3.954817e+000 -5.770980e+001 -2.965199e+001 -1.219985e+002  2.112305e+001  1.224327e+002 -1.387305e+001  1.485489e+002
5.3993125000e+009  4.055488e+000 -5.689957e+001 -2.965532e+001 -1.223700e+002  2.101222e+001  1.222007e+002 -1.396245e+001  1.487034e+002
5.3994375000e+009  4.387809e+000 -5.627795e+001 -2.955858e+001 -1.206270e+002  2.096559e+001  1.215042e+002 -1.402861e+001  1.483625e+002
5.3995625000e+009  4.192671e+000 -5.628385e+001 -2.932709e+001 -1.188983e+002  2.101238e+001  1.215664e+002 -1.415357e+001  1.480244e+002
5.3996875000e+009  4.000048e+000 -5.768203e+001 -3.010998e+001 -1.222150e+002  2.104338e+001  1.219065e+002 -1.373411e+001  1.470802e+002
5.3998125000e+009  4.495368e+000 -5.751234e+001 -2.932647e+001 -1.175172e+002  2.088443e+001  1.216888e+002 -1.421540e+001  1.480171e+002
5.3999375000e+009  4.480457e+000 -5.760103e+001 -2.909314e+001 -1.220806e+002  2.092976e+001  1.218360e+002 -1.400441e+001  1.496848e+002
5.4000625000e+009  4.424557e+000 -5.703778e+001 -2.975498e+001 -1.172622e+002  2.097619e+001  1.222832e+002 -1.415181e+001  1.471678e+002
5.4001875000e+009  4.472748e+000 -5.825645e+001 -2.955601e+001 -1.196690e+002  2.092522e+001  1.224237e+002 -1.401858e+001  1.480968e+002
5.4003125000e+009  4.402764e+000 -5.691207e+001 -2.990583e+001 -1.212250e+002  2.092070e+001  1.220371e+002 -1.396125e+001  1.481418e+002
5.4004375000e+009  4.457274e+000 -5.939616e+001 -2.937976e+001 -1.247459e+002  2.096173e+001  1.221800e+002 -1.378735e+001  1.492586e+002
5.4005625000e+009  4.585228e+000 -5.845395e+001 -2.976187e+001 -1.219320e+002  2.091927e+001  1.219405e+002 -1.393634e+001  1.487227e+002
5.4006875000e+009  4.470678e+000 -5.800757e+001 -2.932030e+001 -1.223599e+002  2.102212e+001  1.216803e+002 -1.398738e+001  1.491643e+002
5.4008125000e+009  4.396799e+000 -5.977182e+001 -2.961284e+001 -1.218827e+002  2.093034e+001  1.224205e+002 -1.402979e+001  1.487031e+002
5.4009375000e+009  4.547872e+000 -5.976412e+001 -2.936130e+001 -1.215379e+002  2.090541e+001  1.225215e+002 -1.409087e+001  1.490493e+002
5.4010625000e+009  4.463325e+000 -5.971593e+001 -2.913191e+001 -1.240778e+002  2.097603e+001  1.221460e+002 -1.399264e+001  1.505282e+002
5.4011875000e+009  4.567379e+000 -6.143664e+001 -2.956314e+001 -1.226090e+002  2.094234e+001  1.223855e+002 -1.391500e+001  1.493288e+002
5.4013125000e+009  4.720264e+000 -6.113742e+001 -2.929342e+001 -1.238279e+002  2.089806e+001  1.216126e+002 -1.390589e+001  1.504004e+002
5.4014375000e+009  4.640912e+000 -6.152796e+001 -2.996002e+001 -1.285497e+002  2.090745e+001  1.225511e+002 -1.366699e+001  1.496825e+002
5.4015625000e+009  4.504684e+000 -6.349539e+001 -2.979541e+001 -1.284647e+002  2.083498e+001  1.232321e+002 -1.368289e+001  1.504776e+002
5.4016875000e+009  4.557100e+000 -6.177210e+001 -2.878495e+001 -1.289957e+002  2.087751e+001  1.223024e+002 -1.391284e+001  1.522081e+002
5.4018125000e+009  4.637547e+000 -6.060059e+001 -2.942594e+001 -1.244185e+002  2.095759e+001  1.220594e+002 -1.396233e+001  1.503611e+002
5.4019375000e+009  4.682820e+000 -6.299866e+001 -2.935899e+001 -1.279916e+002  2.086524e+001  1.219929e+002 -1.377652e+001  1.511732e+002
5.4020625000e+009  4.478997e+000 -6.454350e+001 -2.827148e+001 -1.270195e+002  2.090007e+001  1.232066e+002 -1.402444e+001  1.542963e+002
5.4021875000e+009  4.684986e+000 -6.310738e+001 -2.900025e+001 -1.294504e+002  2.082279e+001  1.229226e+002 -1.383098e+001  1.523163e+002
5.4023125000e+009  4.652782e+000 -6.465920e+001 -2.938759e+001 -1.284087e+002  2.085324e+001  1.233615e+002 -1.384701e+001  1.510902e+002
5.4024375000e+009  4.845697e+000 -6.348505e+001 -2.921853e+001 -1.269276e+002  2.082412e+001  1.224590e+002 -1.401608e+001  1.514352e+002
5.4025625000e+009  4.664691e+000 -6.449524e+001 -2.948187e+001 -1.293649e+002  2.095911e+001  1.235669e+002 -1.378629e+001  1.515711e+002
5.4026875000e+009  4.667363e+000 -6.626257e+001 -2.919376e+001 -1.277713e+002  2.078478e+001  1.233857e+002 -1.387488e+001  1.518188e+002
5.4028125000e+009  4.816163e+000 -6.565609e+001 -2.834497e+001 -1.265485e+002  2.076182e+001  1.236065e+002 -1.415718e+001  1.530591e+002
5.4029375000e+009  4.931027e+000 -6.588542e+001 -2.896591e+001 -1.280870e+002  2.077746e+001  1.241010e+002 -1.398133e+001  1.523433e+002
5.4030625000e+009  4.692534e+000 -6.801274e+001 -2.989327e+001 -1.282915e+002  2.085705e+001  1.242117e+002 -1.380461e+001  1.504164e+002
5.4031875000e+009  4.723090e+000 -6.691636e+001 -2.839663e+001 -1.278313e+002  2.089119e+001  1.241696e+002 -1.407547e+001  1.543276e+002
5.4033125000e+009  4.738614e+000 -6.737840e+001 -2.934359e+001 -1.305534e+002  2.092593e+001  1.238893e+002 -1.376149e+001  1.514639e+002
5.4034375000e+009  4.695004e+000 -6.860584e+001 -2.870966e+001 -1.336072e+002  2.091844e+001  1.239537e+002 -1.363204e+001  1.535123e+002
5.4035625000e+009  4.741722e+000 -6.847454e+001 -2.838369e+001 -1.296875e+002  2.083191e+001  1.245387e+002 -1.402832e+001  1.534351e+002
5.4036875000e+009  4.823390e+000 -6.887884e+001 -2.852979e+001 -1.313745e+002  2.077067e+001  1.241865e+002 -1.385544e+001  1.534640e+002
5.4038125000e+009  4.787201e+000 -6.836541e+001 -2.873414e+001 -1.326514e+002  2.100568e+001  1.240318e+002 -1.367523e+001  1.537649e+002
5.4039375000e+009  4.871698e+000 -6.885595e+001 -2.924298e+001 -1.293409e+002  2.078478e+001  1.246424e+002 -1.390569e+001  1.512471e+002
5.4040625000e+009  4.857227e+000 -6.994393e+001 -2.898939e+001 -1.337029e+002  2.091122e+001  1.245196e+002 -1.373492e+001  1.528287e+002
5.4041875000e+009  4.907279e+000 -7.076100e+001 -2.910645e+001 -1.332439e+002  2.087897e+001  1.245842e+002 -1.361880e+001  1.526405e+002
5.4043125000e+009  4.970509e+000 -7.002683e+001 -2.875847e+001 -1.344958e+002  2.085434e+001  1.237688e+002 -1.362676e+001  1.528046e+002
5.4044375000e+009  5.011291e+000 -6.953362e+001 -2.898929e+001 -1.341762e+002  2.088693e+001  1.240401e+002 -1.362451e+001  1.526553e+002
5.4045625000e+009  5.027173e+000 -7.153690e+001 -2.878843e+001 -1.375363e+002  2.090122e+001  1.247940e+002 -1.349272e+001  1.530613e+002
5.4046875000e+009  4.958241e+000 -7.101899e+001 -2.853311e+001 -1.371235e+002  2.088246e+001  1.243873e+002 -1.346424e+001  1.530692e+002
5.4048125000e+009  4.993943e+000 -7.146820e+001 -2.879014e+001 -1.354638e+002  2.091751e+001  1.246552e+002 -1.356666e+001  1.523311e+002
5.4049375000e+009  5.033717e+000 -7.330132e+001 -2.902455e+001 -1.341534e+002  2.097112e+001  1.250773e+002 -1.357681e+001  1.522881e+002
5.4050625000e+009  5.117951e+000 -7.175990e+001 -2.854995e+001 -1.348985e+002  2.082431e+001  1.244745e+002 -1.358090e+001  1.519000e+002
5.4051875000e+009  5.064956e+000 -7.377377e+001 -2.839912e+001 -1.357866e+002  2.100422e+001  1.247936e+002 -1.348127e+001  1.534755e+002
5.4053125000e+009  5.129877e+000 -7.346046e+001 -2.847217e+001 -1.364571e+002  2.089753e+001  1.252482e+002 -1.352801e+001  1.524132e+002
5.4054375000e+009  5.123893e+000 -7.360488e+001 -2.899542e+001 -1.352922e+002  2.095040e+001  1.250037e+002 -1.353306e+001  1.510100e+002
5.4055625000e+009  5.120543e+000 -7.405015e+001 -2.822773e+001 -1.377720e+002  2.100620e+001  1.250705e+002 -1.342135e+001  1.532580e+002
5.4056875000e+009  5.204822e+000 -7.574068e+001 -2.835103e+001 -1.371803e+002  2.102653e+001  1.257955e+002 -1.343631e+001  1.525757e+002
5.4058125000e+009  5.193815e+000 -7.540887e+001 -2.909426e+001 -1.364714e+002  2.098611e+001  1.254229e+002 -1.345065e+001  1.506358e+002
5.4059375000e+009  5.162004e+000 -7.546349e+001 -2.900325e+001 -1.413140e+002  2.109628e+001  1.253373e+002 -1.322811e+001  1.508122e+002
5.4060625000e+009  5.180814e+000 -7.578095e+001 -2.880845e+001 -1.372180e+002  2.112629e+001  1.254303e+002 -1.334755e+001  1.514735e+002
5.4061875000e+009  5.257086e+000 -7.638449e+001 -2.955818e+001 -1.456026e+002  2.093174e+001  1.251385e+002 -1.295513e+001  1.490490e+002
5.4063125000e+009  5.276485e+000 -7.710288e+001 -2.857907e+001 -1.422592e+002  2.111856e+001  1.260843e+002 -1.303376e+001  1.512059e+002
5.4064375000e+009  5.313178e+000 -7.723087e+001 -2.895454e+001 -1.385661e+002  2.105669e+001  1.259842e+002 -1.330506e+001  1.501027e+002
5.4065625000e+009  5.350784e+000 -7.779844e+001 -2.836839e+001 -1.395031e+002  2.109305e+001  1.257117e+002 -1.323565e+001  1.506900e+002
5.4066875000e+009  5.279133e+000 -7.761568e+001 -2.842533e+001 -1.419119e+002  2.110859e+001  1.257974e+002 -1.312521e+001  1.506815e+002
5.4068125000e+009  5.442665e+000 -7.844154e+001 -2.825803e+001 -1.396952e+002  2.121408e+001  1.259063e+002 -1.328010e+001  1.510799e+002
5.4069375000e+009  5.470209e+000 -7.844796e+001 -2.835727e+001 -1.447260e+002  2.106212e+001  1.257019e+002 -1.292126e+001  1.498960e+002
5.4070625000e+009  5.453631e+000 -7.877077e+001 -2.900484e+001 -1.428502e+002  2.104217e+001  1.257611e+002 -1.294574e+001  1.485167e+002
5.4071875000e+009  5.470049e+000 -7.942330e+001 -2.834110e+001 -1.407446e+002  2.118492e+001  1.259607e+002 -1.306401e+001  1.500821e+002
5.4073125000e+009  5.567582e+000 -7.942365e+001 -2.752176e+001 -1.410726e+002  2.110956e+001  1.255765e+002 -1.302558e+001  1.514321e+002
5.4074375000e+009  5.470491e+000 -7.990067e+001 -2.861821e+001 -1.429748e+002  2.130289e+001  1.262739e+002 -1.292998e+001  1.487691e+002
5.4075625000e+009  5.407482e+000 -8.088286e+001 -2.823730e+001 -1.428974e+002  2.129724e+001  1.262352e+002 -1.297786e+001  1.494453e+002
5.4076875000e+009  5.506560e+000 -8.029362e+001 -2.826033e+001 -1.436831e+002  2.106417e+001  1.253365e+002 -1.268389e+001  1.489402e+002
5.4078125000e+009  5.670890e+000 -8.129932e+001 -2.887935e+001 -1.447557e+002  2.126515e+001  1.262604e+002 -1.283482e+001  1.472367e+002
5.4079375000e+009  5.581757e+000 -8.096880e+001 -2.838388e+001 -1.501585e+002  2.127986e+001  1.258711e+002 -1.253685e+001  1.474879e+002
5.4080625000e+009  5.704507e+000 -8.126489e+001 -2.817070e+001 -1.456262e+002  2.128415e+001  1.258286e+002 -1.272099e+001  1.484499e+002
5.4081875000e+009  5.627517e+000 -8.204443e+001 -2.845733e+001 -1.474475e+002  2.133060e+001  1.263242e+002 -1.260342e+001  1.470967e+002
5.4083125000e+009  5.608877e+000 -8.213328e+001 -2.837894e+001 -1.465261e+002  2.140116e+001  1.260235e+002 -1.263853e+001  1.472501e+002
5.4084375000e+009  5.767009e+000 -8.336700e+001 -2.823205e+001 -1.432704e+002  2.130323e+001  1.262959e+002 -1.271056e+001  1.466279e+002
5.4085625000e+009  5.722391e+000 -8.279800e+001 -2.783164e+001 -1.467531e+002  2.133650e+001  1.261353e+002 -1.251277e+001  1.470142e+002
5.4086875000e+009  5.818826e+000 -8.241785e+001 -2.828653e+001 -1.485535e+002  2.137342e+001  1.259868e+002 -1.245481e+001  1.461323e+002
5.4088125000e+009  5.780669e+000 -8.391205e+001 -2.823908e+001 -1.457417e+002  2.144388e+001  1.261300e+002 -1.264727e+001  1.460046e+002
5.4089375000e+009  5.954729e+000 -8.460052e+001 -2.810535e+001 -1.470184e+002  2.145881e+001  1.266860e+002 -1.247492e+001  1.462440e+002
5.4090625000e+009  5.759964e+000 -8.377308e+001 -2.897230e+001 -1.490204e+002  2.150978e+001  1.262247e+002 -1.240966e+001  1.437880e+002
5.4091875000e+009  6.026396e+000 -8.441294e+001 -2.810196e+001 -1.467029e+002  2.144854e+001  1.261973e+002 -1.240214e+001  1.458280e+002
5.4093125000e+009  5.750819e+000 -8.480354e+001 -2.803504e+001 -1.503770e+002  2.159322e+001  1.262941e+002 -1.218901e+001  1.444438e+002
5.4094375000e+009  5.891890e+000 -8.535932e+001 -2.844323e+001 -1.501202e+002  2.157205e+001  1.262252e+002 -1.221954e+001  1.443794e+002
5.4095625000e+009  5.790649e+000 -8.590400e+001 -2.805311e+001 -1.509251e+002  2.161913e+001  1.261225e+002 -1.210884e+001  1.446658e+002
5.4096875000e+009  5.749464e+000 -8.629795e+001 -2.835634e+001 -1.498257e+002  2.171146e+001  1.261060e+002 -1.223965e+001  1.440898e+002
5.4098125000e+009  5.933764e+000 -8.586616e+001 -2.846209e+001 -1.466056e+002  2.161835e+001  1.259300e+002 -1.229086e+001  1.433923e+002
5.4099375000e+009  5.978420e+000 -8.540694e+001 -2.852054e+001 -1.477809e+002  2.162820e+001  1.256964e+002 -1.209758e+001  1.431160e+002
5.4100625000e+009  6.202487e+000 -8.605754e+001 -2.783686e+001 -1.508918e+002  2.165090e+001  1.261548e+002 -1.190702e+001  1.436487e+002
5.4101875000e+009  5.979605e+000 -8.658508e+001 -2.854268e+001 -1.496348e+002  2.176617e+001  1.259583e+002 -1.203087e+001  1.425938e+002
5.4103125000e+009  6.065957e+000 -8.538547e+001 -2.880538e+001 -1.495961e+002  2.175906e+001  1.255572e+002 -1.200576e+001  1.411592e+002
5.4104375000e+009  6.198610e+000 -8.734194e+001 -2.876427e+001 -1.531628e+002  2.181847e+001  1.263812e+002 -1.187293e+001  1.395799e+002
5.4105625000e+009  6.094800e+000 -8.669815e+001 -2.775623e+001 -1.567392e+002  2.179747e+001  1.255105e+002 -1.162347e+001  1.425771e+002
5.4106875000e+009  6.284009e+000 -8.716850e+001 -2.784472e+001 -1.557964e+002  2.180103e+001  1.258690e+002 -1.167261e+001  1.414776e+002
5.4108125000e+009  6.551960e+000 -8.874773e+001 -2.775746e+001 -1.515163e+002  2.179049e+001  1.266375e+002 -1.172316e+001  1.412155e+002
5.4109375000e+009  5.948083e+000 -8.674397e+001 -2.862111e+001 -1.483057e+002  2.193593e+001  1.255380e+002 -1.201343e+001  1.397630e+002
5.4110625000e+009  5.961520e+000 -8.656690e+001 -2.782394e+001 -1.521727e+002  2.193277e+001  1.251695e+002 -1.173521e+001  1.418441e+002
5.4111875000e+009  6.386847e+000 -8.949298e+001 -2.798499e+001 -1.469678e+002  2.193657e+001  1.264469e+002 -1.187683e+001  1.397486e+002
5.4113125000e+009  6.285104e+000 -8.787865e+001 -2.869760e+001 -1.534868e+002  2.197613e+001  1.257254e+002 -1.156617e+001  1.394638e+002
5.4114375000e+009  6.312228e+000 -8.872396e+001 -2.783842e+001 -1.508873e+002  2.199428e+001  1.256869e+002 -1.170836e+001  1.400118e+002
5.4115625000e+009  6.328580e+000 -8.846188e+001 -2.880387e+001 -1.489149e+002  2.201910e+001  1.256036e+002 -1.164794e+001  1.395404e+002
5.4116875000e+009  6.256274e+000 -8.747633e+001 -2.792036e+001 -1.548528e+002  2.209294e+001  1.252387e+002 -1.130890e+001  1.382920e+002
5.4118125000e+009  6.282205e+000 -8.852785e+001 -2.823178e+001 -1.527418e+002  2.210176e+001  1.251155e+002 -1.136660e+001  1.383077e+002
5.4119375000e+009  6.408796e+000 -8.856673e+001 -2.788199e+001 -1.550795e+002  2.208105e+001  1.253018e+002 -1.124137e+001  1.391890e+002
5.4120625000e+009  6.360513e+000 -8.826448e+001 -2.791073e+001 -1.524515e+002  2.212993e+001  1.251852e+002 -1.132591e+001  1.387430e+002
5.4121875000e+009  6.296671e+000 -8.907944e+001 -2.790618e+001 -1.513051e+002  2.218891e+001  1.249637e+002 -1.135475e+001  1.382780e+002
5.4123125000e+009  6.501575e+000 -8.912728e+001 -2.837583e+001 -1.530549e+002  2.217824e+001  1.251925e+002 -1.117206e+001  1.368687e+002
5.4124375000e+009  6.427028e+000 -8.860269e+001 -2.877535e+001 -1.542813e+002  2.221849e+001  1.248412e+002 -1.114676e+001  1.349922e+002
5.4125625000e+009  6.242702e+000 -8.866842e+001 -2.826752e+001 -1.542173e+002  2.228440e+001  1.246256e+002 -1.102329e+001  1.375978e+002
5.4126875000e+009  6.790030e+000 -8.903452e+001 -2.786506e+001 -1.527697e+002  2.218513e+001  1.248599e+002 -1.114527e+001  1.366493e+002
5.4128125000e+009  6.434271e+000 -8.972387e+001 -2.807113e+001 -1.579215e+002  2.230999e+001  1.246116e+002 -1.079744e+001  1.358187e+002
5.4129375000e+009  6.465119e+000 -8.977203e+001 -2.812142e+001 -1.632891e+002  2.236382e+001  1.249673e+002 -1.065068e+001  1.369299e+002
5.4130625000e+009  6.759332e+000 -9.081879e+001 -2.717263e+001 -1.581270e+002  2.231304e+001  1.252602e+002 -1.068899e+001  1.372171e+002
5.4131875000e+009  6.321972e+000 -9.103825e+001 -2.860606e+001 -1.533526e+002  2.244970e+001  1.247434e+002 -1.100624e+001  1.359400e+002
5.4133125000e+009  6.703807e+000 -9.070269e+001 -2.686446e+001 -1.561394e+002  2.238519e+001  1.252129e+002 -1.072322e+001  1.394187e+002
5.4134375000e+009  6.499807e+000 -9.138631e+001 -2.769875e+001 -1.588206e+002  2.252395e+001  1.248605e+002 -1.062002e+001  1.367666e+002
5.4135625000e+009  6.141254e+000 -9.174531e+001 -2.841388e+001 -1.574516e+002  2.259148e+001  1.242380e+002 -1.070089e+001  1.354108e+002
5.4136875000e+009  5.853497e+000 -8.952773e+001 -2.830728e+001 -1.549742e+002  2.264669e+001  1.236828e+002 -1.074607e+001  1.363040e+002
5.4138125000e+009  6.495080e+000 -9.158530e+001 -2.768951e+001 -1.534267e+002  2.256384e+001  1.244965e+002 -1.073790e+001  1.363837e+002
5.4139375000e+009  6.125442e+000 -9.298195e+001 -2.818373e+001 -1.583497e+002  2.269325e+001  1.241510e+002 -1.059380e+001  1.351909e+002
5.4140625000e+009  6.613945e+000 -9.276403e+001 -2.788829e+001 -1.557082e+002  2.267972e+001  1.244269e+002 -1.051457e+001  1.362004e+002
5.4141875000e+009  6.439476e+000 -9.390537e+001 -2.851092e+001 -1.605289e+002  2.274032e+001  1.246157e+002 -1.044236e+001  1.352012e+002
5.4143125000e+009  6.160944e+000 -9.293648e+001 -2.796187e+001 -1.618337e+002  2.278444e+001  1.238420e+002 -1.027440e+001  1.351582e+002
5.4144375000e+009  6.348375e+000 -9.365047e+001 -2.809177e+001 -1.588818e+002  2.275857e+001  1.243629e+002 -1.050865e+001  1.364943e+002
5.4145625000e+009  6.577901e+000 -9.355910e+001 -2.841044e+001 -1.592964e+002  2.284750e+001  1.241199e+002 -1.030609e+001  1.349502e+002
5.4146875000e+009  6.171388e+000 -9.312809e+001 -2.909013e+001 -1.614194e+002  2.288402e+001  1.235751e+002 -1.038288e+001  1.341959e+002
5.4148125000e+009  6.049222e+000 -9.414441e+001 -2.822694e+001 -1.606880e+002  2.296076e+001  1.233906e+002 -1.032772e+001  1.353595e+002
5.4149375000e+009  6.049034e+000 -9.620009e+001 -2.824348e+001 -1.583806e+002  2.306240e+001  1.236515e+002 -1.019671e+001  1.354247e+002
5.4150625000e+009  5.765975e+000 -9.514027e+001 -2.861751e+001 -1.616839e+002  2.307117e+001  1.227836e+002 -1.030141e+001  1.337112e+002
5.4151875000e+009  5.898811e+000 -9.434703e+001 -2.864392e+001 -1.625291e+002  2.307779e+001  1.228424e+002 -1.018014e+001  1.344742e+002
5.4153125000e+009  6.067306e+000 -9.498965e+001 -2.857653e+001 -1.630584e+002  2.300075e+001  1.227292e+002 -1.032323e+001  1.338766e+002
5.4154375000e+009  5.820093e+000 -9.657508e+001 -2.875744e+001 -1.680907e+002  2.327637e+001  1.232877e+002 -9.869641e+000  1.340475e+002
5.4155625000e+009  5.872858e+000 -9.582440e+001 -2.839898e+001 -1.611433e+002  2.315514e+001  1.230365e+002 -1.026089e+001  1.356541e+002
5.4156875000e+009  5.948291e+000 -9.652876e+001 -2.869033e+001 -1.654870e+002  2.324891e+001  1.226199e+002 -9.963113e+000  1.336954e+002
5.4158125000e+009  5.720506e+000 -9.746532e+001 -2.869460e+001 -1.653792e+002  2.339174e+001  1.225779e+002 -9.804652e+000  1.336508e+002
5.4159375000e+009  5.779559e+000 -9.678957e+001 -2.869217e+001 -1.619097e+002  2.326353e+001  1.218576e+002 -1.010850e+001  1.334424e+002
5.4160625000e+009  6.092058e+000 -9.690694e+001 -2.835446e+001 -1.627166e+002  2.324755e+001  1.230217e+002 -1.010573e+001  1.355525e+002
5.4161875000e+009  5.651144e+000 -9.784340e+001 -2.923013e+001 -1.705501e+002  2.349150e+001  1.219302e+002 -9.727762e+000  1.321901e+002
5.4163125000e+009  5.765708e+000 -9.777666e+001 -2.855463e+001 -1.678660e+002  2.341118e+001  1.211068e+002 -9.810252e+000  1.321500e+002
5.4164375000e+009  5.965860e+000 -9.726366e+001 -2.826808e+001 -1.656965e+002  2.346939e+001  1.219434e+002 -9.612309e+000  1.339035e+002
5.4165625000e+009  6.055806e+000 -9.591822e+001 -2.812537e+001 -1.633847e+002  2.339337e+001  1.219411e+002 -9.745410e+000  1.344962e+002
5.4166875000e+009  5.722974e+000 -9.777752e+001 -2.924398e+001 -1.633663e+002  2.354742e+001  1.211259e+002 -9.844167e+000  1.325546e+002
5.4168125000e+009  5.885340e+000 -9.747058e+001 -2.854492e+001 -1.669797e+002  2.357370e+001  1.213803e+002 -9.624896e+000  1.332647e+002
5.4169375000e+009  5.535862e+000 -9.863397e+001 -2.868950e+001 -1.673120e+002  2.362250e+001  1.210173e+002 -9.694130e+000  1.330685e+002
5.4170625000e+009  5.737835e+000 -9.887337e+001 -2.872540e+001 -1.678103e+002  2.354364e+001  1.211687e+002 -9.801239e+000  1.331277e+002
5.4171875000e+009  5.972543e+000 -9.839054e+001 -2.826368e+001 -1.619071e+002  2.355349e+001  1.212526e+002 -9.846121e+000  1.343136e+002
5.4173125000e+009  5.392989e+000 -9.954140e+001 -2.859883e+001 -1.675241e+002  2.365718e+001  1.207797e+002 -9.732109e+000  1.333662e+002
5.4174375000e+009  5.473375e+000 -1.005480e+002 -2.874158e+001 -1.657025e+002  2.376191e+001  1.211268e+002 -9.619744e+000  1.339872e+002
5.4175625000e+009  5.587141e+000 -9.990533e+001 -2.841896e+001 -1.677182e+002  2.382120e+001  1.201658e+002 -9.395580e+000  1.325263e+002
5.4176875000e+009  5.692080e+000 -9.966059e+001 -2.823805e+001 -1.645212e+002  2.373650e+001  1.205580e+002 -9.595446e+000  1.338316e+002
5.4178125000e+009  5.418335e+000 -1.018479e+002 -2.910283e+001 -1.677283e+002  2.380766e+001  1.210461e+002 -9.632706e+000  1.340671e+002
5.4179375000e+009  5.676471e+000 -1.009961e+002 -2.834807e+001 -1.651814e+002  2.380682e+001  1.203813e+002 -9.568360e+000  1.337108e+002
5.4180625000e+009  5.396143e+000 -1.015322e+002 -2.855448e+001 -1.695941e+002  2.391469e+001  1.198612e+002 -9.433031e+000  1.324982e+002
5.4181875000e+009  5.401496e+000 -1.027869e+002 -2.864171e+001 -1.717796e+002  2.390696e+001  1.196600e+002 -9.464622e+000  1.322411e+002
5.4183125000e+009  5.656451e+000 -1.003865e+002 -2.866088e+001 -1.716591e+002  2.402656e+001  1.198443e+002 -9.174340e+000  1.322258e+002
5.4184375000e+009  5.285594e+000 -1.028121e+002 -2.885808e+001 -1.670746e+002  2.404676e+001  1.190985e+002 -9.338027e+000  1.322481e+002
5.4185625000e+009  5.252975e+000 -1.032278e+002 -2.911508e+001 -1.729924e+002  2.405404e+001  1.188939e+002 -9.313745e+000  1.314477e+002
5.4186875000e+009  5.559690e+000 -1.013265e+002 -2.909454e+001 -1.705458e+002  2.386610e+001  1.194389e+002 -9.628815e+000  1.324306e+002
5.4188125000e+009  5.509200e+000 -1.030481e+002 -2.820281e+001 -1.696959e+002  2.416697e+001  1.187098e+002 -9.068095e+000  1.320153e+002
5.4189375000e+009  5.200317e+000 -1.028998e+002 -2.896017e+001 -1.723611e+002  2.413457e+001  1.185205e+002 -9.271072e+000  1.313585e+002
5.4190625000e+009  5.340117e+000 -1.033312e+002 -2.881030e+001 -1.694613e+002  2.397545e+001  1.192252e+002 -9.541300e+000  1.330146e+002
5.4191875000e+009  5.078860e+000 -1.045585e+002 -2.902977e+001 -1.709627e+002  2.435731e+001  1.184319e+002 -8.986814e+000  1.318549e+002
5.4193125000e+009  5.312938e+000 -1.041893e+002 -2.892029e+001 -1.718783e+002  2.417273e+001  1.183334e+002 -9.322469e+000  1.313315e+002
5.4194375000e+009  5.410506e+000 -1.025359e+002 -2.941899e+001 -1.740960e+002  2.414067e+001  1.180838e+002 -9.305808e+000  1.310798e+002
5.4195625000e+009  5.121620e+000 -1.053413e+002 -2.983577e+001 -1.734927e+002  2.428215e+001  1.180066e+002 -9.294286e+000  1.311337e+002
5.4196875000e+009  5.052299e+000 -1.055942e+002 -2.944641e+001 -1.743392e+002  2.430496e+001  1.174763e+002 -9.188974e+000  1.307465e+002
5.4198125000e+009  5.188872e+000 -1.052587e+002 -2.924005e+001 -1.706146e+002  2.428942e+001  1.178822e+002 -9.292909e+000  1.315689e+002
5.4199375000e+009  5.171382e+000 -1.045710e+002 -2.867033e+001 -1.727593e+002  2.444296e+001  1.175750e+002 -8.878922e+000  1.317224e+002
5.4200625000e+009  4.968560e+000 -1.060009e+002 -2.943867e+001 -1.744976e+002  2.437889e+001  1.166042e+002 -9.171991e+000  1.303469e+002
5.4201875000e+009  5.292539e+000 -1.046710e+002 -2.903006e+001 -1.756571e+002  2.443039e+001  1.172209e+002 -8.938250e+000  1.309919e+002
5.4203125000e+009  4.915687e+000 -1.072206e+002 -2.953396e+001 -1.729909e+002  2.460319e+001  1.171973e+002 -8.897909e+000  1.313656e+002
5.4204375000e+009  5.106971e+000 -1.059131e+002 -2.914079e+001 -1.766351e+002  2.426722e+001  1.162191e+002 -9.356544e+000  1.296311e+002
5.4205625000e+009  5.215218e+000 -1.044722e+002 -2.885098e+001 -1.769840e+002  2.464833e+001  1.170437e+002 -8.650695e+000  1.310676e+002
5.4206875000e+009  5.003538e+000 -1.059893e+002 -2.907908e+001 -1.725320e+002  2.462974e+001  1.164812e+002 -8.795768e+000  1.308219e+002
5.4208125000e+009  5.044604e+000 -1.062797e+002 -2.912055e+001 -1.747092e+002  2.449135e+001  1.154914e+002 -9.056536e+000  1.293573e+002
5.4209375000e+009  4.922792e+000 -1.069269e+002 -2.907203e+001 -1.758963e+002  2.459151e+001  1.157091e+002 -8.859918e+000  1.301089e+002
5.4210625000e+009  4.933958e+000 -1.068325e+002 -2.891521e+001 -1.784850e+002  2.472471e+001  1.166279e+002 -8.636432e+000  1.313183e+002
5.4211875000e+009  5.031319e+000 -1.067476e+002 -2.874601e+001 -1.765811e+002  2.468192e+001  1.158817e+002 -8.723849e+000  1.308525e+002
5.4213125000e+009  5.009600e+000 -1.062722e+002 -2.893306e+001 -1.764413e+002  2.471202e+001  1.148560e+002 -8.694771e+000  1.294500e+002
5.4214375000e+009  4.884701e+000 -1.085046e+002 -2.922358e+001 -1.795264e+002  2.490696e+001  1.153733e+002 -8.490294e+000  1.299415e+002
5.4215625000e+009  4.947437e+000 -1.081009e+002 -2.952594e+001 -1.758529e+002  2.474756e+001  1.147903e+002 -8.822349e+000  1.294297e+002
5.4216875000e+009  4.985982e+000 -1.067875e+002 -2.901887e+001 -1.778862e+002  2.465815e+001  1.151322e+002 -8.847054e+000  1.302971e+002
5.4218125000e+009  4.890573e+000 -1.083763e+002 -2.937817e+001  1.792498e+002  2.494957e+001  1.151355e+002 -8.428859e+000  1.301502e+002
5.4219375000e+009  4.833529e+000 -1.087219e+002 -2.878194e+001 -1.793713e+002  2.477476e+001  1.143018e+002 -8.698008e+000  1.295184e+002
5.4220625000e+009  4.942863e+000 -1.079122e+002 -2.905201e+001 -1.790230e+002  2.484687e+001  1.143055e+002 -8.577250e+000  1.300043e+002
5.4221875000e+009  4.817772e+000 -1.092606e+002 -2.945892e+001  1.778309e+002  2.495973e+001  1.146560e+002 -8.485877e+000  1.300696e+002
5.4223125000e+009  4.795222e+000 -1.094031e+002 -2.952865e+001 -1.755264e+002  2.482623e+001  1.136859e+002 -8.739566e+000  1.298170e+002
5.4224375000e+009  4.836442e+000 -1.089875e+002 -3.023776e+001 -1.757878e+002  2.488695e+001  1.135124e+002 -8.710938e+000  1.293532e+002
5.4225625000e+009  4.712639e+000 -1.105465e+002 -2.962755e+001  1.792698e+002  2.506268e+001  1.131413e+002 -8.444673e+000  1.287530e+002
5.4226875000e+009  4.739546e+000 -1.097910e+002 -2.942899e+001  1.777279e+002  2.499071e+001  1.133681e+002 -8.487433e+000  1.290070e+002
5.4228125000e+009  4.719250e+000 -1.096708e+002 -2.955437e+001 -1.762388e+002  2.491607e+001  1.122648e+002 -8.666474e+000  1.285152e+002
5.4229375000e+009  4.762491e+000 -1.099100e+002 -3.046340e+001  1.795025e+002  2.515578e+001  1.138131e+002 -8.362804e+000  1.304176e+002
5.4230625000e+009  4.631684e+000 -1.101355e+002 -2.942420e+001  1.790275e+002  2.518392e+001  1.122253e+002 -8.200227e+000  1.284482e+002
5.4231875000e+009  4.695058e+000 -1.097732e+002 -2.976869e+001 -1.786281e+002  2.509291e+001  1.126617e+002 -8.442286e+000  1.293503e+002
5.4233125000e+009  4.640257e+000 -1.110295e+002 -2.940621e+001  1.788325e+002  2.510734e+001  1.122315e+002 -8.385162e+000  1.285664e+002
5.4234375000e+009  4.609655e+000 -1.109191e+002 -2.966474e+001  1.774468e+002  2.505927e+001  1.114071e+002 -8.518399e+000  1.278604e+002
5.4235625000e+009  4.594241e+000 -1.108746e+002 -2.904112e+001  1.778042e+002  2.508148e+001  1.121133e+002 -8.358713e+000  1.292459e+002
5.4236875000e+009  4.609087e+000 -1.112301e+002 -2.937434e+001  1.772336e+002  2.523613e+001  1.119747e+002 -8.249680e+000  1.290320e+002
5.4238125000e+009  4.533525e+000 -1.115958e+002 -2.958920e+001 -1.799803e+002  2.529377e+001  1.119194e+002 -8.146945e+000  1.297430e+002
5.4239375000e+009  4.544232e+000 -1.107682e+002 -2.953915e+001  1.777484e+002  2.517566e+001  1.107874e+002 -8.306662e+000  1.281471e+002
5.4240625000e+009  4.508832e+000 -1.112835e+002 -2.919998e+001  1.760748e+002  2.528750e+001  1.114654e+002 -8.106020e+000  1.290662e+002
5.4241875000e+009  4.472032e+000 -1.119294e+002 -2.916756e+001  1.774983e+002  2.533511e+001  1.108154e+002 -8.041677e+000  1.287700e+002
5.4243125000e+009  4.468848e+000 -1.115488e+002 -2.905262e+001  1.750866e+002  2.531160e+001  1.101498e+002 -8.063781e+000  1.273912e+002
5.4244375000e+009  4.452672e+000 -1.120990e+002 -3.003069e+001  1.783857e+002  2.534390e+001  1.108060e+002 -8.144155e+000  1.293387e+002
5.4245625000e+009  4.403065e+000 -1.125539e+002 -2.950049e+001  1.795065e+002  2.540863e+001  1.102690e+002 -7.975441e+000  1.287255e+002
5.4246875000e+009  4.401538e+000 -1.126330e+002 -3.010211e+001  1.790297e+002  2.534101e+001  1.095503e+002 -8.186794e+000  1.281908e+002
5.4248125000e+009  4.398265e+000 -1.122473e+002 -2.936011e+001  1.769134e+002  2.545034e+001  1.107492e+002 -7.883761e+000  1.302095e+002
5.4249375000e+009  4.368448e+000 -1.131944e+002 -3.030058e+001  1.768634e+002  2.547835e+001  1.100521e+002 -7.964137e+000  1.291223e+002
5.4250625000e+009  4.384330e+000 -1.125683e+002 -3.010179e+001  1.752948e+002  2.546295e+001  1.090489e+002 -7.994113e+000  1.277712e+002
5.4251875000e+009  4.306053e+000 -1.134290e+002 -2.956742e+001  1.750973e+002  2.540213e+001  1.088254e+002 -8.036919e+000  1.283859e+002
5.4253125000e+009  4.294132e+000 -1.132284e+002 -3.021965e+001  1.709994e+002  2.545958e+001  1.084292e+002 -8.068037e+000  1.271649e+002
5.4254375000e+009  4.284169e+000 -1.134575e+002 -3.061411e+001  1.779424e+002  2.557113e+001  1.079675e+002 -7.942956e+000  1.272842e+002
5.4255625000e+009  4.219037e+000 -1.138389e+002 -3.001799e+001  1.729693e+002  2.556747e+001  1.084017e+002 -7.963032e+000  1.281234e+002
5.4256875000e+009  4.178947e+000 -1.140595e+002 -3.033111e+001  1.688479e+002  2.558946e+001  1.080722e+002 -7.990134e+000  1.278590e+002
5.4258125000e+009  4.153735e+000 -1.138067e+002 -2.985466e+001  1.710047e+002  2.560724e+001  1.079694e+002 -7.905837e+000  1.282193e+002
5.4259375000e+009  4.080845e+000 -1.143185e+002 -3.045817e+001  1.736850e+002  2.563082e+001  1.077899e+002 -7.995100e+000  1.282117e+002
5.4260625000e+009  3.966796e+000 -1.145448e+002 -2.999606e+001  1.725915e+002  2.571102e+001  1.074030e+002 -7.802423e+000  1.285457e+002
5.4261875000e+009  4.027860e+000 -1.145657e+002 -2.992137e+001  1.751076e+002  2.571583e+001  1.067865e+002 -7.869823e+000  1.277971e+002
5.4263125000e+009  3.965180e+000 -1.151904e+002 -3.064902e+001  1.755269e+002  2.570827e+001  1.077314e+002 -7.950262e+000  1.299369e+002
5.4264375000e+009  3.897104e+000 -1.158492e+002 -3.009384e+001  1.771001e+002  2.577753e+001  1.065083e+002 -7.810993e+000  1.283686e+002
5.4265625000e+009  3.828167e+000 -1.156910e+002 -2.938816e+001  1.749134e+002  2.577799e+001  1.060994e+002 -7.838590e+000  1.276590e+002
5.4266875000e+009  3.758393e+000 -1.159104e+002 -3.061796e+001  1.747171e+002  2.579943e+001  1.065852e+002 -7.878485e+000  1.293169e+002
5.4268125000e+009  3.737305e+000 -1.156799e+002 -3.070562e+001  1.721946e+002  2.587457e+001  1.059989e+002 -7.847289e+000  1.289403e+002
5.4269375000e+009  3.726919e+000 -1.161022e+002 -3.052450e+001  1.737264e+002  2.586048e+001  1.055067e+002 -7.916340e+000  1.284557e+002
5.4270625000e+009  3.704979e+000 -1.160021e+002 -3.068013e+001  1.744737e+002  2.588507e+001  1.057263e+002 -7.893424e+000  1.293099e+002
5.4271875000e+009  3.579711e+000 -1.166673e+002 -3.013040e+001  1.741625e+002  2.592607e+001  1.051222e+002 -7.845805e+000  1.284070e+002
5.4273125000e+009  3.568746e+000 -1.166262e+002 -3.033635e+001  1.733542e+002  2.593997e+001  1.046816e+002 -7.848193e+000  1.284400e+002
5.4274375000e+009  3.515854e+000 -1.170683e+002 -3.058718e+001  1.719697e+002  2.594573e+001  1.047821e+002 -7.902737e+000  1.291109e+002
5.4275625000e+009  3.537409e+000 -1.174261e+002 -3.064334e+001  1.711022e+002  2.595271e+001  1.046324e+002 -7.927132e+000  1.294105e+002
5.4276875000e+009  3.452683e+000 -1.171864e+002 -3.085822e+001  1.720092e+002  2.601361e+001  1.036272e+002 -7.955771e+000  1.276686e+002
5.4278125000e+009  3.428009e+000 -1.176281e+002 -3.022599e+001  1.714996e+002  2.602171e+001  1.038066e+002 -7.878902e+000  1.288244e+002
5.4279375000e+009  3.284029e+000 -1.174911e+002 -2.988280e+001  1.708326e+002  2.605030e+001  1.035743e+002 -7.818311e+000  1.284903e+002
5.4280625000e+009  3.397321e+000 -1.181891e+002 -3.085994e+001  1.727768e+002  2.607684e+001  1.025922e+002 -7.951269e+000  1.274580e+002
5.4281875000e+009  3.330947e+000 -1.185825e+002 -3.061749e+001  1.711869e+002  2.611115e+001  1.027308e+002 -7.892458e+000  1.277739e+002
5.4283125000e+009  3.224451e+000 -1.185953e+002 -3.072168e+001  1.747750e+002  2.612003e+001  1.026857e+002 -7.857095e+000  1.287171e+002
5.4284375000e+009  3.199888e+000 -1.189842e+002 -3.064693e+001  1.725105e+002  2.612516e+001  1.023391e+002 -7.963062e+000  1.286663e+002
5.4285625000e+009  3.196622e+000 -1.191579e+002 -3.063892e+001  1.708667e+002  2.612983e+001  1.025747e+002 -7.962440e+000  1.297615e+002
5.4286875000e+009  3.031181e+000 -1.192312e+002 -3.045148e+001  1.733344e+002  2.612601e+001  1.019835e+002 -7.944097e+000  1.295757e+002
5.4288125000e+009  3.156412e+000 -1.201924e+002 -3.090915e+001  1.747282e+002  2.620146e+001  1.014030e+002 -7.844859e+000  1.294801e+002
5.4289375000e+009  3.039810e+000 -1.193871e+002 -3.092877e+001  1.688541e+002  2.619871e+001  1.014763e+002 -8.029283e+000  1.289580e+002
5.4290625000e+009  2.942327e+000 -1.192213e+002 -3.092600e+001  1.668902e+002  2.622780e+001  1.008913e+002 -8.010619e+000  1.292718e+002
5.4291875000e+009  2.946891e+000 -1.199751e+002 -3.093911e+001  1.685666e+002  2.622986e+001  1.005787e+002 -8.044813e+000  1.287189e+002
5.4293125000e+009  2.890133e+000 -1.201706e+002 -3.041886e+001  1.695221e+002  2.624797e+001  1.005835e+002 -7.994939e+000  1.291231e+002
5.4294375000e+009  2.856719e+000 -1.207115e+002 -3.119563e+001  1.705314e+002  2.630041e+001  1.001368e+002 -7.970571e+000  1.291041e+002
5.4295625000e+009  2.850509e+000 -1.205972e+002 -3.032267e+001  1.690168e+002  2.631832e+001  9.968861e+001 -7.940164e+000  1.281161e+002
5.4296875000e+009  2.728586e+000 -1.205603e+002 -3.134919e+001  1.688433e+002  2.634516e+001  9.950780e+001 -7.997313e+000  1.287678e+002
5.4298125000e+009  2.750235e+000 -1.209942e+002 -3.114490e+001  1.696556e+002  2.640953e+001  9.953495e+001 -7.969511e+000  1.295096e+002
5.4299375000e+009  2.698017e+000 -1.210606e+002 -3.096200e+001  1.699217e+002  2.634878e+001  9.913677e+001 -8.045220e+000  1.293561e+002
5.4300625000e+009  2.666464e+000 -1.208073e+002 -3.085782e+001  1.707507e+002  2.639060e+001  9.868590e+001 -8.036860e+000  1.302362e+002
5.4301875000e+009  2.661777e+000 -1.215916e+002 -3.179462e+001  1.723218e+002  2.639683e+001  9.851283e+001 -8.062514e+000  1.302075e+002
5.4303125000e+009  2.708069e+000 -1.220567e+002 -3.102448e+001  1.654459e+002  2.640205e+001  9.762888e+001 -8.060246e+000  1.287646e+002
5.4304375000e+009  2.718525e+000 -1.220332e+002 -3.098499e+001  1.689890e+002  2.638700e+001  9.808325e+001 -8.090684e+000  1.297198e+002
5.4305625000e+009  2.441505e+000 -1.226635e+002 -3.129113e+001  1.714880e+002  2.642863e+001  9.760709e+001 -8.067625e+000  1.299803e+002
5.4306875000e+009  2.486119e+000 -1.224091e+002 -3.151117e+001  1.645356e+002  2.647601e+001  9.709878e+001 -8.056542e+000  1.287214e+002
5.4308125000e+009  2.514343e+000 -1.227088e+002 -3.117234e+001  1.669785e+002  2.649849e+001  9.675417e+001 -8.087193e+000  1.288102e+002
5.4309375000e+009  2.441097e+000 -1.225991e+002 -3.121138e+001  1.733954e+002  2.653987e+001  9.670876e+001 -7.973349e+000  1.294249e+002
5.4310625000e+009  2.440765e+000 -1.229139e+002 -3.114297e+001  1.693928e+002  2.653820e+001  9.605920e+001 -8.049067e+000  1.286319e+002
5.4311875000e+009  2.375825e+000 -1.226151e+002 -3.066306e+001  1.656078e+002  2.660873e+001  9.602179e+001 -8.070186e+000  1.291537e+002
5.4313125000e+009  2.224822e+000 -1.235442e+002 -3.215150e+001  1.649478e+002  2.653913e+001  9.562865e+001 -8.158212e+000  1.301774e+002
5.4314375000e+009  2.329190e+000 -1.238739e+002 -3.122647e+001  1.671089e+002  2.653205e+001  9.555495e+001 -8.124640e+000  1.298982e+002
5.4315625000e+009  2.232219e+000 -1.238346e+002 -3.110627e+001  1.669390e+002  2.656785e+001  9.488078e+001 -8.108863e+000  1.298026e+002
5.4316875000e+009  2.086091e+000 -1.242582e+002 -3.116823e+001  1.652876e+002  2.655802e+001  9.460419e+001 -8.173614e+000  1.290251e+002
5.4318125000e+009  2.248979e+000 -1.240087e+002 -3.138931e+001  1.697292e+002  2.660714e+001  9.421589e+001 -8.058067e+000  1.293824e+002
5.4319375000e+009  2.134000e+000 -1.245993e+002 -3.145180e+001  1.667632e+002  2.666434e+001  9.389037e+001 -8.134898e+000  1.297938e+002
5.4320625000e+009  2.082654e+000 -1.244634e+002 -3.169281e+001  1.629305e+002  2.657607e+001  9.396957e+001 -8.216213e+000  1.298321e+002
5.4321875000e+009  2.068515e+000 -1.245310e+002 -3.161096e+001  1.648201e+002  2.660866e+001  9.357308e+001 -8.132046e+000  1.295690e+002
5.4323125000e+009  2.073746e+000 -1.255319e+002 -3.239273e+001  1.680587e+002  2.661485e+001  9.318407e+001 -8.236153e+000  1.306373e+002
5.4324375000e+009  1.951160e+000 -1.256101e+002 -3.165506e+001  1.682233e+002  2.667642e+001  9.281763e+001 -8.161974e+000  1.304853e+002
5.4325625000e+009  1.919490e+000 -1.252699e+002 -3.162241e+001  1.695855e+002  2.660660e+001  9.250530e+001 -8.151925e+000  1.295898e+002
5.4326875000e+009  1.833809e+000 -1.256320e+002 -3.120212e+001  1.675365e+002  2.668097e+001  9.219460e+001 -8.198497e+000  1.300912e+002
5.4328125000e+009  1.770245e+000 -1.262207e+002 -3.152160e+001  1.664310e+002  2.667066e+001  9.151595e+001 -8.298938e+000  1.298511e+002
5.4329375000e+009  1.863085e+000 -1.261021e+002 -3.170963e+001  1.696497e+002  2.667864e+001  9.106107e+001 -8.210899e+000  1.296638e+002
5.4330625000e+009  1.885358e+000 -1.261960e+002 -3.163204e+001  1.670684e+002  2.678071e+001  9.102839e+001 -8.154962e+000  1.296171e+002
5.4331875000e+009  1.732709e+000 -1.266758e+002 -3.160386e+001  1.657837e+002  2.675012e+001  9.055974e+001 -8.244884e+000  1.301041e+002
5.4333125000e+009  1.710296e+000 -1.268263e+002 -3.233068e+001  1.705101e+002  2.670179e+001  9.069267e+001 -8.157330e+000  1.298379e+002
5.4334375000e+009  1.704703e+000 -1.265425e+002 -3.103180e+001  1.644812e+002  2.671935e+001  9.011785e+001 -8.294365e+000  1.300890e+002
5.4335625000e+009  1.580351e+000 -1.272282e+002 -3.168328e+001  1.646424e+002  2.677917e+001  8.969617e+001 -8.207349e+000  1.300235e+002
5.4336875000e+009  1.657931e+000 -1.271949e+002 -3.205788e+001  1.643597e+002  2.677909e+001  8.961185e+001 -8.249928e+000  1.298427e+002
5.4338125000e+009  1.562104e+000 -1.274703e+002 -3.171595e+001  1.655078e+002  2.683527e+001  8.938022e+001 -8.179985e+000  1.302658e+002
5.4339375000e+009  1.506015e+000 -1.276578e+002 -3.209653e+001  1.649272e+002  2.687022e+001  8.894057e+001 -8.182837e+000  1.301705e+002
5.4340625000e+009  1.512167e+000 -1.281137e+002 -3.230981e+001  1.647585e+002  2.676275e+001  8.924136e+001 -8.235600e+000  1.308221e+002
5.4341875000e+009  1.386772e+000 -1.284894e+002 -3.247383e+001  1.665420e+002  2.679529e+001  8.809389e+001 -8.259764e+000  1.302895e+002
5.4343125000e+009  1.407170e+000 -1.281287e+002 -3.160366e+001  1.674437e+002  2.692806e+001  8.831470e+001 -8.162109e+000  1.302719e+002
5.4344375000e+009  1.444475e+000 -1.285758e+002 -3.248658e+001  1.627017e+002  2.681307e+001  8.766538e+001 -8.260987e+000  1.305438e+002
5.4345625000e+009  1.319861e+000 -1.286468e+002 -3.196676e+001  1.669581e+002  2.686180e+001  8.744591e+001 -8.241804e+000  1.303972e+002
5.4346875000e+009  1.326623e+000 -1.286418e+002 -3.184729e+001  1.660836e+002  2.686352e+001  8.664463e+001 -8.309747e+000  1.297925e+002
5.4348125000e+009  1.324811e+000 -1.286839e+002 -3.150437e+001  1.676806e+002  2.676881e+001  8.625291e+001 -8.373344e+000  1.298351e+002
5.4349375000e+009  1.327030e+000 -1.290873e+002 -3.213518e+001  1.637208e+002  2.692253e+001  8.608682e+001 -8.267871e+000  1.303663e+002
5.4350625000e+009  1.220791e+000 -1.290728e+002 -3.187951e+001  1.643266e+002  2.692990e+001  8.580743e+001 -8.259072e+000  1.298364e+002
5.4351875000e+009  1.242950e+000 -1.290006e+002 -3.180416e+001  1.661698e+002  2.682825e+001  8.576522e+001 -8.292662e+000  1.304482e+002
5.4353125000e+009  1.206787e+000 -1.292748e+002 -3.151980e+001  1.625025e+002  2.698091e+001  8.549091e+001 -8.259295e+000  1.305129e+002
5.4354375000e+009  1.120118e+000 -1.300366e+002 -3.213998e+001  1.629355e+002  2.700807e+001  8.505088e+001 -8.162108e+000  1.305115e+002
5.4355625000e+009  1.073000e+000 -1.300099e+002 -3.229803e+001  1.621201e+002  2.690716e+001  8.522117e+001 -8.210112e+000  1.309300e+002
5.4356875000e+009  1.150451e+000 -1.301555e+002 -3.254629e+001  1.605150e+002  2.702561e+001  8.483918e+001 -8.106455e+000  1.310433e+002
5.4358125000e+009  1.029988e+000 -1.307114e+002 -3.186559e+001  1.618756e+002  2.692162e+001  8.384178e+001 -8.368730e+000  1.299636e+002
5.4359375000e+009  9.813735e-001 -1.306012e+002 -3.214169e+001  1.648397e+002  2.674297e+001  8.296809e+001 -8.540114e+000  1.298425e+002
5.4360625000e+009  9.854220e-001 -1.309076e+002 -3.204080e+001  1.620751e+002  2.689128e+001  8.279924e+001 -8.349906e+000  1.297532e+002
5.4361875000e+009  9.032124e-001 -1.310660e+002 -3.204650e+001  1.642131e+002  2.695599e+001  8.357410e+001 -8.230548e+000  1.307281e+002
5.4363125000e+009  9.237180e-001 -1.309989e+002 -3.224555e+001  1.627689e+002  2.706799e+001  8.283681e+001 -8.139212e+000  1.301379e+002
5.4364375000e+009  8.885732e-001 -1.312134e+002 -3.246548e+001  1.627415e+002  2.696362e+001  8.330270e+001 -8.191212e+000  1.313876e+002
5.4365625000e+009  7.917083e-001 -1.315710e+002 -3.280760e+001  1.647904e+002  2.682791e+001  8.279410e+001 -8.383455e+000  1.316062e+002
5.4366875000e+009  7.943011e-001 -1.315038e+002 -3.191182e+001  1.655624e+002  2.690080e+001  8.142421e+001 -8.329715e+000  1.296497e+002
5.4368125000e+009  7.573494e-001 -1.319004e+002 -3.219663e+001  1.640582e+002  2.707519e+001  8.175077e+001 -8.076712e+000  1.307063e+002
5.4369375000e+009  7.156773e-001 -1.325096e+002 -3.286385e+001  1.589680e+002  2.704560e+001  8.135979e+001 -8.142164e+000  1.306566e+002
5.4370625000e+009  7.056111e-001 -1.320569e+002 -3.207474e+001  1.638276e+002  2.692288e+001  8.007188e+001 -8.380652e+000  1.294068e+002
5.4371875000e+009  7.098034e-001 -1.321080e+002 -3.204712e+001  1.600232e+002  2.698583e+001  8.117577e+001 -8.158681e+000  1.313820e+002
5.4373125000e+009  6.324022e-001 -1.327154e+002 -3.222647e+001  1.591384e+002  2.704223e+001  7.968388e+001 -8.258232e+000  1.296263e+002
5.4374375000e+009  5.568985e-001 -1.329075e+002 -3.289118e+001  1.669160e+002  2.688175e+001  7.985575e+001 -8.255127e+000  1.303399e+002
5.4375625000e+009  5.745230e-001 -1.329299e+002 -3.283715e+001  1.597342e+002  2.696088e+001  8.003304e+001 -8.175830e+000  1.315595e+002
5.4376875000e+009  5.544108e-001 -1.331170e+002 -3.267134e+001  1.603002e+002  2.708967e+001  7.939439e+001 -8.077053e+000  1.304322e+002
5.4378125000e+009  5.152200e-001 -1.331493e+002 -3.220559e+001  1.626369e+002  2.703595e+001  7.799304e+001 -8.237097e+000  1.289289e+002
5.4379375000e+009  5.137213e-001 -1.334059e+002 -3.217030e+001  1.632548e+002  2.703306e+001  7.831835e+001 -8.273851e+000  1.293448e+002
5.4380625000e+009  4.708570e-001 -1.339677e+002 -3.210867e+001  1.605111e+002  2.709741e+001  7.825110e+001 -8.175714e+000  1.298592e+002
5.4381875000e+009  4.738964e-001 -1.342264e+002 -3.239380e+001  1.584539e+002  2.693851e+001  7.704173e+001 -8.335248e+000  1.291801e+002
5.4383125000e+009  4.036217e-001 -1.343812e+002 -3.222869e+001  1.625308e+002  2.686759e+001  7.799442e+001 -8.460098e+000  1.307614e+002
5.4384375000e+009  4.051408e-001 -1.345822e+002 -3.250013e+001  1.615309e+002  2.699850e+001  7.698558e+001 -8.332834e+000  1.292943e+002
5.4385625000e+009  3.953302e-001 -1.346763e+002 -3.229932e+001  1.604843e+002  2.718609e+001  7.742971e+001 -7.953178e+000  1.299540e+002
5.4386875000e+009  3.591548e-001 -1.349747e+002 -3.211794e+001  1.628041e+002  2.701293e+001  7.723967e+001 -8.245254e+000  1.304351e+002
5.4388125000e+009  3.541515e-001 -1.355762e+002 -3.206247e+001  1.569993e+002  2.698184e+001  7.588578e+001 -8.484621e+000  1.292580e+002
5.4389375000e+009  3.649937e-001 -1.358635e+002 -3.240755e+001  1.578880e+002  2.689485e+001  7.572708e+001 -8.612244e+000  1.299003e+002
5.4390625000e+009  3.346020e-001 -1.358921e+002 -3.195716e+001  1.627464e+002  2.714869e+001  7.575060e+001 -8.197934e+000  1.286554e+002
5.4391875000e+009  3.017077e-001 -1.365076e+002 -3.227721e+001  1.532591e+002  2.716999e+001  7.616345e+001 -8.089894e+000  1.306334e+002
5.4393125000e+009  2.512430e-001 -1.366158e+002 -3.302168e+001  1.594595e+002  2.700293e+001  7.414191e+001 -8.472494e+000  1.278312e+002
5.4394375000e+009  3.066021e-001 -1.368556e+002 -3.190430e+001  1.574729e+002  2.685801e+001  7.360054e+001 -8.846351e+000  1.283583e+002
5.4395625000e+009  2.449574e-001 -1.370864e+002 -3.217418e+001  1.566570e+002  2.695733e+001  7.434589e+001 -8.524929e+000  1.291856e+002
5.4396875000e+009  2.729498e-001 -1.376711e+002 -3.235172e+001  1.541718e+002  2.700461e+001  7.367060e+001 -8.443704e+000  1.286491e+002
5.4398125000e+009  2.525086e-001 -1.376974e+002 -3.241716e+001  1.594172e+002  2.694359e+001  7.328959e+001 -8.597609e+000  1.286631e+002
5.4399375000e+009  1.438616e-001 -1.376568e+002 -3.224328e+001  1.639193e+002  2.693518e+001  7.404251e+001 -8.519073e+000  1.302235e+002
5.4400625000e+009  1.949177e-001 -1.384151e+002 -3.186889e+001  1.570367e+002  2.691912e+001  7.179618e+001 -8.839827e+000  1.273005e+002
5.4401875000e+009  2.151070e-001 -1.388922e+002 -3.237029e+001  1.537844e+002  2.699421e+001  7.304694e+001 -8.377650e+000  1.297352e+002
5.4403125000e+009  1.293819e-001 -1.389426e+002 -3.226235e+001  1.563913e+002  2.701410e+001  7.189843e+001 -8.580512e+000  1.277532e+002
5.4404375000e+009  1.201759e-001 -1.391609e+002 -3.273714e+001  1.564041e+002  2.701978e+001  7.164414e+001 -8.339757e+000  1.280972e+002
5.4405625000e+009  1.820814e-001 -1.397901e+002 -3.239981e+001  1.541354e+002  2.694125e+001  7.123982e+001 -8.520089e+000  1.284828e+002
5.4406875000e+009  4.655279e-002 -1.394149e+002 -3.245140e+001  1.568371e+002  2.694641e+001  7.218497e+001 -8.510126e+000  1.303173e+002
5.4408125000e+009  9.067231e-002 -1.400327e+002 -3.224701e+001  1.554334e+002  2.698865e+001  6.955839e+001 -8.573685e+000  1.256274e+002
5.4409375000e+009  5.474280e-002 -1.404206e+002 -3.227600e+001  1.571139e+002  2.683654e+001  7.004440e+001 -8.804870e+000  1.280258e+002
5.4410625000e+009 -3.381401e-002 -1.405741e+002 -3.256826e+001  1.561981e+002  2.691110e+001  6.963213e+001 -8.748791e+000  1.269607e+002
5.4411875000e+009  3.763879e-002 -1.407978e+002 -3.205013e+001  1.546449e+002  2.691450e+001  6.754305e+001 -8.905318e+000  1.238756e+002
5.4413125000e+009  7.903109e-002 -1.416550e+002 -3.194497e+001  1.533472e+002  2.693388e+001  6.814129e+001 -8.760877e+000  1.254566e+002
5.4414375000e+009  3.357008e-003 -1.411072e+002 -3.229041e+001  1.567690e+002  2.683624e+001  6.834196e+001 -8.836889e+000  1.261074e+002
5.4415625000e+009 -4.409193e-002 -1.416581e+002 -3.193589e+001  1.538255e+002  2.685795e+001  6.819668e+001 -8.865253e+000  1.270379e+002
5.4416875000e+009 -1.222286e-001 -1.416380e+002 -3.249991e+001  1.555135e+002  2.679641e+001  6.725322e+001 -9.058299e+000  1.253587e+002
5.4418125000e+009 -1.000394e-001 -1.421759e+002 -3.234092e+001  1.542584e+002  2.689726e+001  6.834657e+001 -8.616270e+000  1.279443e+002
5.4419375000e+009 -8.232998e-002 -1.423696e+002 -3.235088e+001  1.568213e+002  2.683676e+001  6.572818e+001 -9.029458e+000  1.227899e+002
5.4420625000e+009 -7.163698e-002 -1.428252e+002 -3.176359e+001  1.541377e+002  2.686993e+001  6.623825e+001 -8.905773e+000  1.252317e+002
5.4421875000e+009 -1.734138e-001 -1.425378e+002 -3.171375e+001  1.564780e+002  2.690312e+001  6.663416e+001 -8.722213e+000  1.254040e+002
5.4423125000e+009 -1.446622e-001 -1.432802e+002 -3.268898e+001  1.531323e+002  2.682482e+001  6.470625e+001 -9.045071e+000  1.223676e+002
5.4424375000e+009 -1.000348e-001 -1.434596e+002 -3.259509e+001  1.513919e+002  2.685469e+001  6.516728e+001 -8.742435e+000  1.248322e+002
5.4425625000e+009 -2.183054e-001 -1.433906e+002 -3.275159e+001  1.546099e+002  2.682051e+001  6.510505e+001 -8.819668e+000  1.240527e+002
5.4426875000e+009 -2.080314e-001 -1.437136e+002 -3.251781e+001  1.523717e+002  2.680187e+001  6.375962e+001 -9.023431e+000  1.223864e+002
5.4428125000e+009 -2.178508e-001 -1.438660e+002 -3.234540e+001  1.525430e+002  2.679710e+001  6.461234e+001 -8.983759e+000  1.252915e+002
5.4429375000e+009 -2.482130e-001 -1.442495e+002 -3.221479e+001  1.521699e+002  2.679727e+001  6.429080e+001 -8.845052e+000  1.247997e+002
5.4430625000e+009 -2.923063e-001 -1.446104e+002 -3.245974e+001  1.473143e+002  2.681884e+001  6.335034e+001 -8.842545e+000  1.238232e+002
5.4431875000e+009 -2.509854e-001 -1.447561e+002 -3.254056e+001  1.534226e+002  2.678659e+001  6.159614e+001 -9.194672e+000  1.195285e+002
5.4433125000e+009 -3.929012e-001 -1.447905e+002 -3.261427e+001  1.517760e+002  2.679719e+001  6.264138e+001 -8.836576e+000  1.229322e+002
5.4434375000e+009 -3.349348e-001 -1.453535e+002 -3.209539e+001  1.531113e+002  2.671207e+001  6.221127e+001 -9.192808e+000  1.229506e+002
5.4435625000e+009 -3.050167e-001 -1.459685e+002 -3.236442e+001  1.550223e+002  2.675482e+001  6.237330e+001 -8.868555e+000  1.234388e+002
5.4436875000e+009 -3.884904e-001 -1.460222e+002 -3.219463e+001  1.529290e+002  2.672982e+001  6.116724e+001 -9.086696e+000  1.204906e+002
5.4438125000e+009 -3.375495e-001 -1.460912e+002 -3.226985e+001  1.531188e+002  2.673403e+001  5.953086e+001 -9.120151e+000  1.170508e+002
5.4439375000e+009 -2.791224e-001 -1.468555e+002 -3.200964e+001  1.497816e+002  2.671113e+001  5.971389e+001 -9.265170e+000  1.183169e+002
5.4440625000e+009 -4.122055e-001 -1.471118e+002 -3.254924e+001  1.466312e+002  2.667072e+001  6.068452e+001 -9.080848e+000  1.231279e+002
5.4441875000e+009 -4.779781e-001 -1.471322e+002 -3.250823e+001  1.488423e+002  2.665881e+001  5.933675e+001 -9.253139e+000  1.201080e+002
5.4443125000e+009 -3.538546e-001 -1.473087e+002 -3.196152e+001  1.488522e+002  2.664830e+001  5.902517e+001 -9.160213e+000  1.196967e+002
5.4444375000e+009 -5.063167e-001 -1.473718e+002 -3.261890e+001  1.523321e+002  2.666190e+001  5.937328e+001 -9.199424e+000  1.213823e+002
5.4445625000e+009 -4.144094e-001 -1.480126e+002 -3.204053e+001  1.498906e+002  2.667123e+001  5.788375e+001 -9.214171e+000  1.186426e+002
5.4446875000e+009 -4.268838e-001 -1.482567e+002 -3.201197e+001  1.456640e+002  2.662970e+001  5.754282e+001 -9.299548e+000  1.182851e+002
5.4448125000e+009 -6.535086e-001 -1.476951e+002 -3.240570e+001  1.479465e+002  2.661702e+001  5.759639e+001 -9.299522e+000  1.184733e+002
5.4449375000e+009 -5.629699e-001 -1.481543e+002 -3.330773e+001  1.459732e+002  2.664541e+001  5.665932e+001 -9.091996e+000  1.157247e+002
5.4450625000e+009 -4.911717e-001 -1.488303e+002 -3.195265e+001  1.509969e+002  2.668530e+001  5.635759e+001 -9.242669e+000  1.160899e+002
5.4451875000e+009 -5.250926e-001 -1.489332e+002 -3.257635e+001  1.469423e+002  2.659454e+001  5.608939e+001 -9.423981e+000  1.161303e+002
5.4453125000e+009 -5.813903e-001 -1.492274e+002 -3.236438e+001  1.458585e+002  2.658711e+001  5.536586e+001 -9.250007e+000  1.159309e+002
5.4454375000e+009 -5.505863e-001 -1.492259e+002 -3.250097e+001  1.487876e+002  2.659747e+001  5.481400e+001 -9.456389e+000  1.144490e+002
5.4455625000e+009 -6.030446e-001 -1.495331e+002 -3.264647e+001  1.513275e+002  2.657475e+001  5.513083e+001 -9.291676e+000  1.168181e+002
5.4456875000e+009 -6.520813e-001 -1.495985e+002 -3.236142e+001  1.468675e+002  2.651019e+001  5.415140e+001 -9.581242e+000  1.125432e+002
5.4458125000e+009 -6.560842e-001 -1.498265e+002 -3.245713e+001  1.478298e+002  2.654503e+001  5.371354e+001 -9.283951e+000  1.132014e+002
5.4459375000e+009 -7.502680e-001 -1.503720e+002 -3.244730e+001  1.451329e+002  2.648433e+001  5.329403e+001 -9.403977e+000  1.129529e+002
5.4460625000e+009 -7.418178e-001 -1.504300e+002 -3.202037e+001  1.483342e+002  2.653032e+001  5.252336e+001 -9.362867e+000  1.112281e+002
5.4461875000e+009 -6.505662e-001 -1.506646e+002 -3.241679e+001  1.479382e+002  2.648570e+001  5.199060e+001 -9.388910e+000  1.100527e+002
5.4463125000e+009 -7.173773e-001 -1.512942e+002 -3.242265e+001  1.422757e+002  2.646383e+001  5.196964e+001 -9.246469e+000  1.127148e+002
5.4464375000e+009 -7.211102e-001 -1.510501e+002 -3.250305e+001  1.453599e+002  2.648150e+001  5.098833e+001 -9.269851e+000  1.093037e+002
5.4465625000e+009 -6.533816e-001 -1.518550e+002 -3.223832e+001  1.427286e+002  2.642494e+001  5.044225e+001 -9.169323e+000  1.077571e+002
5.4466875000e+009 -8.968045e-001 -1.519754e+002 -3.252176e+001  1.424986e+002  2.640225e+001  5.101573e+001 -9.505811e+000  1.105752e+002
5.4468125000e+009 -7.891243e-001 -1.522830e+002 -3.205031e+001  1.419483e+002  2.641061e+001  5.009013e+001 -9.540947e+000  1.108923e+002
5.4469375000e+009 -6.366559e-001 -1.521025e+002 -3.243488e+001  1.459300e+002  2.643244e+001  4.958863e+001 -9.349925e+000  1.094512e+002
5.4470625000e+009 -8.352572e-001 -1.526313e+002 -3.178819e+001  1.457927e+002  2.638204e+001  4.923565e+001 -9.540551e+000  1.093198e+002
5.4471875000e+009 -8.241979e-001 -1.527661e+002 -3.216589e+001  1.410139e+002  2.634419e+001  4.842398e+001 -9.313251e+000  1.066120e+002
5.4473125000e+009 -7.150816e-001 -1.528882e+002 -3.219834e+001  1.384473e+002  2.636128e+001  4.777650e+001 -9.201258e+000  1.057479e+002
5.4474375000e+009 -8.990901e-001 -1.533712e+002 -3.181206e+001  1.394340e+002  2.633661e+001  4.819048e+001 -9.632675e+000  1.083537e+002
5.4475625000e+009 -8.153735e-001 -1.531760e+002 -3.197850e+001  1.418305e+002  2.630063e+001  4.676113e+001 -9.192743e+000  1.037220e+002
5.4476875000e+009 -8.871158e-001 -1.537409e+002 -3.240955e+001  1.424560e+002  2.634249e+001  4.642779e+001 -9.197823e+000  1.037222e+002
5.4478125000e+009 -9.154909e-001 -1.544011e+002 -3.208890e+001  1.381042e+002  2.621455e+001  4.617538e+001 -9.281424e+000  1.042595e+002
5.4479375000e+009 -9.395154e-001 -1.543419e+002 -3.247539e+001  1.420652e+002  2.629059e+001  4.583095e+001 -9.352305e+000  1.040909e+002
5.4480625000e+009 -9.056374e-001 -1.546530e+002 -3.245922e+001  1.431327e+002  2.626193e+001  4.504531e+001 -9.330998e+000  1.021331e+002
5.4481875000e+009 -9.136955e-001 -1.546488e+002 -3.168532e+001  1.456043e+002  2.627447e+001  4.469001e+001 -9.570351e+000  1.039639e+002
5.4483125000e+009 -9.577208e-001 -1.554095e+002 -3.211573e+001  1.410679e+002  2.620225e+001  4.436259e+001 -9.382538e+000  1.005305e+002
5.4484375000e+009 -8.027921e-001 -1.556842e+002 -3.181019e+001  1.364110e+002  2.616041e+001  4.414070e+001 -9.522162e+000  1.015022e+002
5.4485625000e+009 -9.735923e-001 -1.557065e+002 -3.199788e+001  1.415726e+002  2.623246e+001  4.377982e+001 -9.532104e+000  1.021122e+002
5.4486875000e+009 -9.417771e-001 -1.560747e+002 -3.127508e+001  1.420984e+002  2.617101e+001  4.300992e+001 -9.566977e+000  1.000236e+002
5.4488125000e+009 -9.675305e-001 -1.564984e+002 -3.202065e+001  1.388168e+002  2.609637e+001  4.258855e+001 -9.484510e+000  9.909285e+001
5.4489375000e+009 -1.018070e+000 -1.569414e+002 -3.209011e+001  1.361394e+002  2.611260e+001  4.213958e+001 -9.449588e+000  9.805213e+001
5.4490625000e+009 -1.040447e+000 -1.568717e+002 -3.199116e+001  1.372097e+002  2.610232e+001  4.138714e+001 -9.374087e+000  9.730535e+001
5.4491875000e+009 -9.507053e-001 -1.570557e+002 -3.205471e+001  1.363852e+002  2.612569e+001  4.072602e+001 -9.274555e+000  9.782908e+001
5.4493125000e+009 -9.925213e-001 -1.574131e+002 -3.188762e+001  1.389830e+002  2.611281e+001  4.071439e+001 -9.549025e+000  9.845068e+001
5.4494375000e+009 -1.023287e+000 -1.578779e+002 -3.199516e+001  1.366825e+002  2.594963e+001  3.990977e+001 -9.186120e+000  9.402037e+001
5.4495625000e+009 -1.026338e+000 -1.579632e+002 -3.215169e+001  1.352686e+002  2.596623e+001  3.930599e+001 -9.318631e+000  9.508245e+001
5.4496875000e+009 -1.015100e+000 -1.579720e+002 -3.215712e+001  1.400355e+002  2.598474e+001  3.937421e+001 -9.626353e+000  9.424377e+001
5.4498125000e+009 -1.039636e+000 -1.583823e+002 -3.226589e+001  1.396940e+002  2.597717e+001  3.854121e+001 -9.488566e+000  9.311450e+001
5.4499375000e+009 -1.068192e+000 -1.587725e+002 -3.166336e+001  1.352726e+002  2.598624e+001  3.800819e+001 -9.419169e+000  9.366622e+001
5.4500625000e+009 -1.077273e+000 -1.594850e+002 -3.180260e+001  1.357269e+002  2.596154e+001  3.787749e+001 -9.640389e+000  9.346765e+001
5.4501875000e+009 -1.106649e+000 -1.593702e+002 -3.188868e+001  1.362803e+002  2.589531e+001  3.694118e+001 -9.287476e+000  9.086440e+001
5.4503125000e+009 -1.064198e+000 -1.594380e+002 -3.205278e+001  1.337928e+002  2.582297e+001  3.644619e+001 -9.263173e+000  9.014632e+001
5.4504375000e+009 -1.167903e+000 -1.599949e+002 -3.170708e+001  1.292378e+002  2.586320e+001  3.605322e+001 -9.422980e+000  9.115891e+001
5.4505625000e+009 -1.158922e+000 -1.602001e+002 -3.227543e+001  1.350357e+002  2.575062e+001  3.548970e+001 -9.341124e+000  8.863380e+001
5.4506875000e+009 -1.086813e+000 -1.603812e+002 -3.174704e+001  1.341992e+002  2.575297e+001  3.422163e+001 -9.143340e+000  8.806391e+001
5.4508125000e+009 -1.087855e+000 -1.602653e+002 -3.153700e+001  1.336828e+002  2.579821e+001  3.485193e+001 -9.510059e+000  8.830132e+001
5.4509375000e+009 -1.178863e+000 -1.604512e+002 -3.213766e+001  1.311348e+002  2.576340e+001  3.334544e+001 -9.089778e+000  8.737470e+001
5.4510625000e+009 -1.112507e+000 -1.606807e+002 -3.184755e+001  1.302192e+002  2.570902e+001  3.277202e+001 -9.159393e+000  8.592694e+001
5.4511875000e+009 -1.127435e+000 -1.609552e+002 -3.200827e+001  1.317408e+002  2.568144e+001  3.279016e+001 -9.344744e+000  8.551597e+001
5.4513125000e+009 -1.201560e+000 -1.613851e+002 -3.200630e+001  1.294882e+002  2.565081e+001  3.193712e+001 -9.260723e+000  8.464610e+001
5.4514375000e+009 -1.090347e+000 -1.616132e+002 -3.115240e+001  1.353943e+002  2.558414e+001  3.131526e+001 -9.322778e+000  8.364912e+001
5.4515625000e+009 -1.133643e+000 -1.614802e+002 -3.186996e+001  1.291269e+002  2.573981e+001  3.187200e+001 -9.524208e+000  8.363039e+001
5.4516875000e+009 -1.190785e+000 -1.620670e+002 -3.181440e+001  1.296804e+002  2.556140e+001  3.072343e+001 -9.251714e+000  8.192004e+001
5.4518125000e+009 -1.181062e+000 -1.617952e+002 -3.221990e+001  1.312711e+002  2.563226e+001  3.044341e+001 -9.422360e+000  8.091974e+001
5.4519375000e+009 -1.179842e+000 -1.623122e+002 -3.181409e+001  1.287691e+002  2.566915e+001  2.999372e+001 -9.499976e+000  8.065051e+001
5.4520625000e+009 -1.189506e+000 -1.624780e+002 -3.209479e+001  1.275535e+002  2.554756e+001  2.883045e+001 -9.292354e+000  7.918056e+001
5.4521875000e+009 -1.152701e+000 -1.626817e+002 -3.163729e+001  1.263514e+002  2.535606e+001  2.813740e+001 -9.172504e+000  7.840325e+001
5.4523125000e+009 -1.201132e+000 -1.628124e+002 -3.269018e+001  1.293899e+002  2.552818e+001  2.892591e+001 -9.404128e+000  7.635737e+001
5.4524375000e+009 -1.253018e+000 -1.630283e+002 -3.182509e+001  1.256080e+002  2.536888e+001  2.682778e+001 -9.241224e+000  7.638865e+001
5.4525625000e+009 -1.167190e+000 -1.633038e+002 -3.140884e+001  1.278529e+002  2.530850e+001  2.596131e+001 -9.243936e+000  7.581181e+001
5.4526875000e+009 -1.172168e+000 -1.634010e+002 -3.178737e+001  1.264903e+002  2.534894e+001  2.659048e+001 -9.375095e+000  7.497980e+001
5.4528125000e+009 -1.215991e+000 -1.635928e+002 -3.213466e+001  1.239649e+002  2.532746e+001  2.559950e+001 -9.297709e+000  7.368093e+001
5.4529375000e+009 -1.159240e+000 -1.638404e+002 -3.189353e+001  1.260734e+002  2.526348e+001  2.546310e+001 -9.373290e+000  7.249124e+001
5.4530625000e+009 -1.189006e+000 -1.639496e+002 -3.200885e+001  1.276059e+002  2.521045e+001  2.456907e+001 -9.480487e+000  7.079816e+001
5.4531875000e+009 -1.258957e+000 -1.644549e+002 -3.240805e+001  1.254357e+002  2.514244e+001  2.312405e+001 -9.247067e+000  6.991808e+001
5.4533125000e+009 -1.246901e+000 -1.645970e+002 -3.170298e+001  1.217189e+002  2.516550e+001  2.344958e+001 -9.310919e+000  6.988099e+001
5.4534375000e+009 -1.245613e+000 -1.646296e+002 -3.240363e+001  1.231961e+002  2.513291e+001  2.265784e+001 -9.340587e+000  6.829281e+001
5.4535625000e+009 -1.290454e+000 -1.650252e+002 -3.204794e+001  1.210565e+002  2.497688e+001  2.117654e+001 -9.180711e+000  6.740908e+001
5.4536875000e+009 -1.246553e+000 -1.654443e+002 -3.119907e+001  1.213507e+002  2.500957e+001  2.162341e+001 -9.410864e+000  6.734203e+001
5.4538125000e+009 -1.246623e+000 -1.657544e+002 -3.160708e+001  1.204157e+002  2.494045e+001  2.140672e+001 -9.388640e+000  6.590107e+001
5.4539375000e+009 -1.256506e+000 -1.654977e+002 -3.197190e+001  1.235390e+002  2.483204e+001  1.958364e+001 -9.349558e+000  6.426852e+001
5.4540625000e+009 -1.230691e+000 -1.656430e+002 -3.218223e+001  1.228377e+002  2.485489e+001  1.943011e+001 -9.413860e+000  6.286102e+001
5.4541875000e+009 -1.264779e+000 -1.660712e+002 -3.214329e+001  1.200592e+002  2.479332e+001  1.984171e+001 -9.435586e+000  6.203003e+001
5.4543125000e+009 -1.275784e+000 -1.660781e+002 -3.189355e+001  1.195494e+002  2.468929e+001  1.881051e+001 -9.427924e+000  6.093486e+001
5.4544375000e+009 -1.321304e+000 -1.667852e+002 -3.212820e+001  1.184932e+002  2.465019e+001  1.701337e+001 -9.301553e+000  5.994510e+001
5.4545625000e+009 -1.317117e+000 -1.669692e+002 -3.227908e+001  1.192366e+002  2.463089e+001  1.777184e+001 -9.448055e+000  5.885404e+001
5.4546875000e+009 -1.296108e+000 -1.665677e+002 -3.205418e+001  1.151572e+002  2.459879e+001  1.664173e+001 -9.335044e+000  5.807272e+001
5.4548125000e+009 -1.251119e+000 -1.679986e+002 -3.131849e+001  1.186990e+002  2.452312e+001  1.582814e+001 -9.538322e+000  5.732265e+001
5.4549375000e+009 -1.262121e+000 -1.683364e+002 -3.180279e+001  1.153476e+002  2.449644e+001  1.603122e+001 -9.444922e+000  5.607395e+001
5.4550625000e+009 -1.371972e+000 -1.674902e+002 -3.227078e+001  1.160866e+002  2.444756e+001  1.529100e+001 -9.446305e+000  5.439184e+001
5.4551875000e+009 -1.311800e+000 -1.682437e+002 -3.269582e+001  1.151022e+002  2.435199e+001  1.410933e+001 -9.421549e+000  5.250808e+001
5.4553125000e+009 -1.351772e+000 -1.682273e+002 -3.270983e+001  1.165241e+002  2.432849e+001  1.429018e+001 -9.552771e+000  5.142667e+001
5.4554375000e+009 -1.363398e+000 -1.683198e+002 -3.225231e+001  1.098630e+002  2.421741e+001  1.238331e+001 -9.410513e+000  5.098468e+001
5.4555625000e+009 -1.296902e+000 -1.697011e+002 -3.233323e+001  1.121986e+002  2.412527e+001  1.186912e+001 -9.507623e+000  4.952671e+001
5.4556875000e+009 -1.398748e+000 -1.698660e+002 -3.205725e+001  1.122253e+002  2.404389e+001  1.243545e+001 -9.581212e+000  4.849514e+001
5.4558125000e+009 -1.396605e+000 -1.696886e+002 -3.258358e+001  1.083899e+002  2.397481e+001  1.153901e+001 -9.466457e+000  4.710199e+001
5.4559375000e+009 -1.356321e+000 -1.702122e+002 -3.226403e+001  1.118824e+002  2.391730e+001  1.041034e+001 -9.578217e+000  4.572042e+001
5.4560625000e+009 -1.412376e+000 -1.704850e+002 -3.221835e+001  1.105563e+002  2.381478e+001  1.055970e+001 -9.666816e+000  4.454871e+001
5.4561875000e+009 -1.425291e+000 -1.709395e+002 -3.238591e+001  1.051955e+002  2.371878e+001  9.514779e+000 -9.527185e+000  4.315966e+001
5.4563125000e+009 -1.395983e+000 -1.713719e+002 -3.234733e+001  1.070762e+002  2.374906e+001  8.466154e+000 -9.638340e+000  4.193616e+001
5.4564375000e+009 -1.521900e+000 -1.720805e+002 -3.254348e+001  1.057040e+002  2.360818e+001  8.644608e+000 -9.629215e+000  4.074972e+001
5.4565625000e+009 -1.608969e+000 -1.708009e+002 -3.255987e+001  1.031688e+002  2.358974e+001  7.078161e+000 -9.600904e+000  3.942957e+001
5.4566875000e+009 -1.444498e+000 -1.724723e+002 -3.220579e+001  1.009769e+002  2.349426e+001  5.980502e+000 -9.590449e+000  3.844825e+001
5.4568125000e+009 -1.540564e+000 -1.724302e+002 -3.284507e+001  1.011706e+002  2.334664e+001  6.536604e+000 -9.665045e+000  3.637754e+001
5.4569375000e+009 -1.607193e+000 -1.721442e+002 -3.293839e+001  1.038808e+002  2.328289e+001  5.663257e+000 -9.740026e+000  3.491746e+001
5.4570625000e+009 -1.373325e+000 -1.734421e+002 -3.279298e+001  1.062098e+002  2.316940e+001  4.925409e+000 -9.936001e+000  3.351732e+001
5.4571875000e+009 -1.523511e+000 -1.729914e+002 -3.250732e+001  1.050996e+002  2.307867e+001  4.576782e+000 -1.001695e+001  3.238716e+001
5.4573125000e+009 -1.567316e+000 -1.741404e+002 -3.265784e+001  1.001287e+002  2.297061e+001  3.920298e+000 -9.945828e+000  3.129908e+001
5.4574375000e+009 -1.585877e+000 -1.741158e+002 -3.268621e+001  9.627934e+001  2.288435e+001  2.368425e+000 -9.910769e+000  2.961758e+001
5.4575625000e+009 -1.668629e+000 -1.746905e+002 -3.226086e+001  9.865699e+001  2.274361e+001  2.770944e+000 -1.007061e+001  2.831153e+001
5.4576875000e+009 -1.652363e+000 -1.752272e+002 -3.365273e+001  9.953557e+001  2.265083e+001  1.877740e+000 -1.010644e+001  2.563336e+001
5.4578125000e+009 -1.540531e+000 -1.756422e+002 -3.297331e+001  9.882214e+001  2.250058e+001  1.091124e+000 -1.021347e+001  2.474982e+001
5.4579375000e+009 -1.685241e+000 -1.747596e+002 -3.328483e+001  9.362843e+001  2.241760e+001  7.249331e-001 -1.018118e+001  2.311557e+001
5.4580625000e+009 -1.653623e+000 -1.757539e+002 -3.339530e+001  9.842416e+001  2.231994e+001  6.349672e-002 -1.033367e+001  2.158038e+001
5.4581875000e+009 -1.550178e+000 -1.767682e+002 -3.396792e+001  9.550473e+001  2.211900e+001 -9.335425e-001 -1.033833e+001  1.924696e+001
5.4583125000e+009 -1.760275e+000 -1.770710e+002 -3.338013e+001  8.897012e+001  2.202857e+001 -8.566035e-001 -1.033596e+001  1.863688e+001
5.4584375000e+009 -1.964312e+000 -1.774214e+002 -3.393033e+001  9.272863e+001  2.188429e+001 -1.207394e+000 -1.051416e+001  1.670786e+001
5.4585625000e+009 -1.857242e+000 -1.771187e+002 -3.398309e+001  8.725164e+001  2.173359e+001 -2.489696e+000 -1.055971e+001  1.479975e+001
5.4586875000e+009 -2.009363e+000 -1.779311e+002 -3.367902e+001  9.195263e+001  2.163093e+001 -2.283051e+000 -1.069711e+001  1.367434e+001
5.4588125000e+009 -1.904612e+000 -1.784931e+002 -3.455136e+001  8.766549e+001  2.147965e+001 -2.918043e+000 -1.074474e+001  1.145178e+001
5.4589375000e+009 -1.925706e+000 -1.791720e+002 -3.456713e+001  9.289438e+001  2.124734e+001 -3.581443e+000 -1.097805e+001  9.279160e+000
5.4590625000e+009 -1.976956e+000 -1.799963e+002 -3.433215e+001  8.480740e+001  2.111340e+001 -4.059216e+000 -1.087951e+001  8.208676e+000
5.4591875000e+009 -2.234015e+000 -1.779941e+002 -3.421688e+001  8.953057e+001  2.102439e+001 -4.547298e+000 -1.125293e+001  6.384689e+000
5.4593125000e+009 -1.965775e+000  1.793778e+002 -3.458064e+001  7.985281e+001  2.079910e+001 -5.140549e+000 -1.112889e+001  4.662569e+000
5.4594375000e+009 -1.967876e+000  1.789047e+002 -3.500029e+001  9.182153e+001  2.061868e+001 -5.048091e+000 -1.156561e+001  2.394876e+000
5.4595625000e+009 -2.411937e+000 -1.792487e+002 -3.463141e+001  8.225611e+001  2.050589e+001 -5.936146e+000 -1.150461e+001  7.229580e-001
5.4596875000e+009 -2.283680e+000  1.784609e+002 -3.469988e+001  8.716340e+001  2.029456e+001 -6.051622e+000 -1.177036e+001 -1.091936e+000
5.4598125000e+009 -2.127272e+000  1.791659e+002 -3.573617e+001  7.731620e+001  2.006485e+001 -6.550845e+000 -1.172500e+001 -3.700230e+000
5.4599375000e+009 -2.262637e+000  1.786950e+002 -3.563239e+001  8.277377e+001  1.986353e+001 -7.085350e+000 -1.192567e+001 -5.459701e+000
5.4600625000e+009 -2.334853e+000  1.770860e+002 -3.568103e+001  8.353175e+001  1.964675e+001 -7.129714e+000 -1.217225e+001 -7.557159e+000
5.4601875000e+009 -2.407689e+000  1.775978e+002 -3.633521e+001  8.615149e+001  1.950664e+001 -7.299603e+000 -1.232072e+001 -9.735260e+000
5.4603125000e+009 -2.544603e+000  1.768157e+002 -3.617920e+001  7.181428e+001  1.926386e+001 -7.559216e+000 -1.230216e+001 -1.140060e+001
5.4604375000e+009 -2.352784e+000  1.768151e+002 -3.703254e+001  8.130888e+001  1.894105e+001 -7.792596e+000 -1.278274e+001 -1.439685e+001
5.4605625000e+009 -2.346894e+000  1.757252e+002 -3.771316e+001  8.014621e+001  1.871509e+001 -7.762516e+000 -1.286563e+001 -1.711854e+001
5.4606875000e+009 -2.768234e+000  1.761621e+002 -3.644651e+001  7.507584e+001  1.857242e+001 -7.903069e+000 -1.289017e+001 -1.803152e+001
5.4608125000e+009 -2.740071e+000  1.753136e+002 -3.764248e+001  7.684855e+001  1.829801e+001 -8.102200e+000 -1.318082e+001 -2.121712e+001
5.4609375000e+009 -2.685612e+000  1.756107e+002 -3.811086e+001  7.748314e+001  1.805008e+001 -8.358813e+000 -1.328343e+001 -2.347817e+001
5.4610625000e+009 -3.085618e+000  1.757999e+002 -3.852673e+001  7.675201e+001  1.773525e+001 -7.977624e+000 -1.372736e+001 -2.692138e+001
5.4611875000e+009 -2.914768e+000  1.748365e+002 -3.841802e+001  7.376205e+001  1.743595e+001 -7.615000e+000 -1.382764e+001 -2.871743e+001
5.4613125000e+009 -3.074235e+000  1.743661e+002 -3.909676e+001  7.879080e+001  1.730645e+001 -7.571966e+000 -1.399331e+001 -3.130831e+001
5.4614375000e+009 -3.069231e+000  1.740492e+002 -4.000286e+001  7.651257e+001  1.696209e+001 -7.428419e+000 -1.430464e+001 -3.389115e+001
5.4615625000e+009 -3.025795e+000  1.747556e+002 -3.909717e+001  7.134946e+001  1.657358e+001 -6.654153e+000 -1.455203e+001 -3.715718e+001
5.4616875000e+009 -3.226598e+000  1.742393e+002 -3.977292e+001  7.433782e+001  1.639863e+001 -6.262429e+000 -1.473977e+001 -4.035635e+001
5.4618125000e+009 -3.351818e+000  1.742556e+002 -3.941603e+001  7.110210e+001  1.607504e+001 -5.291839e+000 -1.515108e+001 -4.264688e+001
5.4619375000e+009 -3.355727e+000  1.739483e+002 -4.179411e+001  6.897948e+001  1.574725e+001 -4.991735e+000 -1.530967e+001 -4.654766e+001
5.4620625000e+009 -3.564070e+000  1.741991e+002 -4.166866e+001  6.904198e+001  1.547400e+001 -4.059998e+000 -1.558411e+001 -4.940034e+001
5.4621875000e+009 -3.808153e+000  1.732498e+002 -4.190402e+001  6.719212e+001  1.515589e+001 -2.971587e+000 -1.584246e+001 -5.284259e+001
5.4623125000e+009 -3.673197e+000  1.730963e+002 -4.194099e+001  8.075391e+001  1.474519e+001 -1.743558e+000 -1.621180e+001 -5.741378e+001
5.4624375000e+009 -3.793489e+000  1.735409e+002 -4.266789e+001  8.445572e+001  1.447782e+001 -8.251733e-001 -1.644772e+001 -6.096490e+001
5.4625625000e+009 -3.979963e+000  1.730884e+002 -4.381624e+001  7.933450e+001  1.424513e+001  1.340771e+000 -1.668612e+001 -6.395577e+001
5.4626875000e+009 -3.827525e+000  1.728747e+002 -4.274648e+001  8.308292e+001  1.382239e+001  3.048393e+000 -1.696436e+001 -6.873078e+001
5.4628125000e+009 -3.919983e+000  1.735542e+002 -4.388015e+001  7.926140e+001  1.361855e+001  4.383482e+000 -1.701960e+001 -7.254274e+001
5.4629375000e+009 -4.346177e+000  1.742444e+002 -4.450571e+001  7.948588e+001  1.335981e+001  6.968194e+000 -1.727611e+001 -7.754172e+001
5.4630625000e+009 -4.019415e+000  1.732796e+002 -4.449718e+001  9.119161e+001  1.301587e+001  9.314762e+000 -1.763476e+001 -8.343550e+001
5.4631875000e+009 -4.364509e+000  1.734137e+002 -4.366525e+001  7.369344e+001  1.285794e+001  1.126750e+001 -1.760247e+001 -8.688266e+001
5.4633125000e+009 -4.589058e+000  1.731604e+002 -4.358625e+001  9.423118e+001  1.261758e+001  1.433339e+001 -1.819116e+001 -9.361527e+001
5.4634375000e+009 -4.215909e+000  1.742287e+002 -4.636751e+001  8.840385e+001  1.238054e+001  1.751661e+001 -1.796480e+001 -9.823551e+001
5.4635625000e+009 -4.424220e+000  1.733463e+002 -4.429743e+001  9.052602e+001  1.236565e+001  1.993750e+001 -1.766838e+001 -1.026264e+002
5.4636875000e+009 -4.592301e+000  1.736582e+002 -4.503595e+001  9.282302e+001  1.226452e+001  2.330062e+001 -1.782386e+001 -1.065358e+002
5.4638125000e+009 -4.524035e+000  1.734767e+002 -4.533760e+001  9.687168e+001  1.217023e+001  2.608025e+001 -1.771734e+001 -1.146014e+002
5.4639375000e+009 -4.666813e+000  1.733466e+002 -4.593131e+001  1.149081e+002  1.216828e+001  2.912426e+001 -1.708573e+001 -1.160553e+002
5.4640625000e+009 -4.912938e+000  1.731954e+002 -4.633698e+001  1.006030e+002  1.222075e+001  3.204408e+001 -1.720064e+001 -1.227762e+002
5.4641875000e+009 -4.738015e+000  1.747343e+002 -4.778680e+001  1.055190e+002  1.227977e+001  3.518752e+001 -1.740600e+001 -1.290282e+002
5.4643125000e+009 -4.859476e+000  1.748821e+002 -4.761206e+001  1.086616e+002  1.239600e+001  3.751923e+001 -1.685558e+001 -1.323590e+002
5.4644375000e+009 -5.291358e+000  1.732941e+002 -4.709333e+001  1.249504e+002  1.253638e+001  4.074673e+001 -1.661577e+001 -1.350550e+002
5.4645625000e+009 -5.157541e+000  1.741326e+002 -4.626905e+001  1.068622e+002  1.278337e+001  4.336955e+001 -1.684138e+001 -1.441962e+002
5.4646875000e+009 -4.956554e+000  1.751895e+002 -4.546597e+001  1.224122e+002  1.289970e+001  4.540533e+001 -1.625033e+001 -1.442498e+002
5.4648125000e+009 -5.328664e+000  1.736702e+002 -4.651434e+001  1.319397e+002  1.313479e+001  4.790176e+001 -1.602724e+001 -1.474643e+002
5.4649375000e+009 -5.366882e+000  1.748197e+002 -4.353528e+001  1.365213e+002  1.341523e+001  4.976709e+001 -1.552999e+001 -1.527017e+002
5.4650625000e+009 -5.420999e+000  1.743363e+002 -4.666087e+001  1.333893e+002  1.367619e+001  5.173567e+001 -1.548052e+001 -1.543678e+002
5.4651875000e+009 -5.588027e+000  1.736110e+002 -4.437321e+001  1.280507e+002  1.384947e+001  5.331103e+001 -1.518481e+001 -1.578290e+002
5.4653125000e+009 -5.636849e+000  1.743864e+002 -4.374765e+001  1.478964e+002  1.419423e+001  5.477141e+001 -1.496058e+001 -1.617240e+002
5.4654375000e+009 -5.460526e+000  1.757843e+002 -4.416422e+001  1.338629e+002  1.434110e+001  5.587044e+001 -1.420220e+001 -1.614461e+002
5.4655625000e+009 -5.599475e+000  1.751915e+002 -4.298267e+001  1.366284e+002  1.462367e+001  5.710923e+001 -1.423825e+001 -1.642443e+002
5.4656875000e+009 -5.520893e+000  1.756508e+002 -4.460594e+001  1.498997e+002  1.498355e+001  5.785389e+001 -1.409273e+001 -1.733783e+002
5.4658125000e+009 -5.647453e+000  1.760034e+002 -4.430663e+001  1.385208e+002  1.513780e+001  5.886721e+001 -1.365143e+001 -1.704476e+002
5.4659375000e+009 -5.767300e+000  1.746933e+002 -4.299866e+001  1.436860e+002  1.533524e+001  5.995517e+001 -1.344700e+001 -1.695403e+002
5.4660625000e+009 -5.736530e+000  1.756014e+002 -4.337014e+001  1.565385e+002  1.566733e+001  6.010526e+001 -1.312727e+001 -1.751062e+002
5.4661875000e+009 -5.731807e+000  1.767956e+002 -4.265790e+001  1.531813e+002  1.591969e+001  6.065022e+001 -1.289252e+001 -1.783203e+002
5.4663125000e+009 -5.930727e+000  1.758795e+002 -4.079362e+001  1.424018e+002  1.620466e+001  6.143903e+001 -1.257332e+001  1.795484e+002
5.4664375000e+009 -5.794465e+000  1.767549e+002 -4.220161e+001  1.468902e+002  1.637795e+001  6.172076e+001 -1.215044e+001  1.791080e+002
5.4665625000e+009 -5.867723e+000  1.773192e+002 -4.322933e+001  1.450097e+002  1.656123e+001  6.191774e+001 -1.217177e+001  1.763984e+002
5.4666875000e+009 -6.123139e+000  1.754899e+002 -4.239077e+001  1.401515e+002  1.679555e+001  6.233962e+001 -1.212134e+001  1.740687e+002
5.4668125000e+009 -6.070521e+000  1.759788e+002 -4.203667e+001  1.584008e+002  1.709592e+001  6.216940e+001 -1.174952e+001  1.711843e+002
5.4669375000e+009 -6.060673e+000  1.767807e+002 -4.152024e+001  1.605626e+002  1.716819e+001  6.272367e+001 -1.183437e+001  1.740174e+002
5.4670625000e+009 -6.139796e+000  1.770211e+002 -4.313438e+001  1.520787e+002  1.737981e+001  6.289902e+001 -1.149543e+001  1.737971e+002
5.4671875000e+009 -6.107395e+000  1.772254e+002 -4.177263e+001  1.342955e+002  1.764746e+001  6.215944e+001 -1.071214e+001  1.646405e+002
5.4673125000e+009 -6.103658e+000  1.772745e+002 -4.104276e+001  1.541236e+002  1.777373e+001  6.257666e+001 -1.094978e+001  1.661142e+002
5.4674375000e+009 -6.148270e+000  1.773207e+002 -3.876804e+001  1.443900e+002  1.791402e+001  6.275889e+001 -1.091837e+001  1.682094e+002
5.4675625000e+009 -6.247945e+000  1.779614e+002 -4.043798e+001  1.511237e+002  1.818572e+001  6.250306e+001 -1.051245e+001  1.636021e+002
5.4676875000e+009 -6.158692e+000  1.784175e+002 -4.042884e+001  1.481446e+002  1.825389e+001  6.235147e+001 -1.037824e+001  1.653133e+002
5.4678125000e+009 -6.291409e+000  1.778459e+002 -3.981161e+001  1.476945e+002  1.841748e+001  6.223896e+001 -1.018271e+001  1.637045e+002
5.4679375000e+009 -6.256640e+000  1.787499e+002 -4.169501e+001  1.429408e+002  1.860186e+001  6.184081e+001 -1.002643e+001  1.601974e+002
5.4680625000e+009 -6.265274e+000  1.781754e+002 -4.032555e+001  1.505168e+002  1.876133e+001  6.197643e+001 -9.795701e+000  1.599162e+002
5.4681875000e+009 -6.288872e+000  1.770558e+002 -3.990085e+001  1.532225e+002  1.884512e+001  6.200716e+001 -1.001331e+001  1.630277e+002
5.4683125000e+009 -6.357994e+000  1.782553e+002 -3.942022e+001  1.507828e+002  1.908817e+001  6.144813e+001 -9.311165e+000  1.569115e+002
5.4684375000e+009 -6.363760e+000  1.786613e+002 -3.960025e+001  1.566597e+002  1.918109e+001  6.110755e+001 -9.369245e+000  1.553781e+002
5.4685625000e+009 -6.365917e+000  1.785405e+002 -3.962688e+001  1.589011e+002  1.930322e+001  6.109840e+001 -9.413325e+000  1.573075e+002
5.4686875000e+009 -6.463186e+000  1.789546e+002 -3.933150e+001  1.485460e+002  1.942290e+001  6.030299e+001 -8.825365e+000  1.521588e+002
5.4688125000e+009 -6.407384e+000  1.783993e+002 -3.953669e+001  1.457824e+002  1.952998e+001  6.012646e+001 -8.602088e+000  1.510171e+002
5.4689375000e+009 -6.461090e+000  1.780456e+002 -3.831411e+001  1.574073e+002  1.967876e+001  6.023880e+001 -8.805079e+000  1.543379e+002
5.4690625000e+009 -6.386128e+000  1.785025e+002 -3.910336e+001  1.524162e+002  1.982380e+001  5.972051e+001 -8.447639e+000  1.510810e+002
5.4691875000e+009 -6.391525e+000  1.794747e+002 -3.944355e+001  1.483738e+002  1.992527e+001  5.914391e+001 -8.208882e+000  1.482829e+002
5.4693125000e+009 -6.571915e+000  1.793237e+002 -3.905137e+001  1.512842e+002  2.003644e+001  5.931593e+001 -8.339077e+000  1.503369e+002
5.4694375000e+009 -6.469555e+000  1.792085e+002 -3.961240e+001  1.570974e+002  2.016937e+001  5.817590e+001 -7.727884e+000  1.476377e+002
5.4695625000e+009 -6.526454e+000  1.789800e+002 -3.846595e+001  1.514926e+002  2.023551e+001  5.897019e+001 -8.211663e+000  1.510557e+002
5.4696875000e+009 -6.551998e+000  1.788288e+002 -3.839808e+001  1.534324e+002  2.036428e+001  5.825864e+001 -7.916852e+000  1.481348e+002
5.4698125000e+009 -6.527959e+000  1.789749e+002 -3.742245e+001  1.443564e+002  2.047832e+001  5.720945e+001 -7.272003e+000  1.460038e+002
5.4699375000e+009 -6.577313e+000  1.794927e+002 -3.913732e+001  1.487278e+002  2.045947e+001  5.715905e+001 -7.569231e+000  1.450045e+002
5.4700625000e+009 -6.578084e+000  1.791237e+002 -3.815710e+001  1.551934e+002  2.059614e+001  5.713869e+001 -7.738534e+000  1.468900e+002
5.4701875000e+009 -6.566581e+000  1.793941e+002 -3.809209e+001  1.532622e+002  2.071009e+001  5.647454e+001 -7.347755e+000  1.445671e+002
5.4703125000e+009 -6.574060e+000  1.795077e+002 -3.806439e+001  1.472409e+002  2.075238e+001  5.633509e+001 -7.347180e+000  1.436849e+002
5.4704375000e+009 -6.654219e+000  1.791307e+002 -3.770480e+001  1.463961e+002  2.089010e+001  5.610065e+001 -7.316185e+000  1.448468e+002
5.4705625000e+009 -6.644347e+000  1.790224e+002 -3.802606e+001  1.489528e+002  2.097478e+001  5.537132e+001 -6.957856e+000  1.421714e+002
5.4706875000e+009 -6.619326e+000  1.794258e+002 -3.792007e+001  1.503308e+002  2.096432e+001  5.535551e+001 -7.079488e+000  1.414877e+002
5.4708125000e+009 -6.677323e+000  1.794489e+002 -3.802726e+001  1.548975e+002  2.109106e+001  5.454475e+001 -6.869810e+000  1.414525e+002
5.4709375000e+009 -6.744199e+000  1.793660e+002 -3.748767e+001  1.449883e+002  2.106694e+001  5.430091e+001 -6.846784e+000  1.397600e+002
5.4710625000e+009 -6.587880e+000 -1.799266e+002 -3.812069e+001  1.572925e+002  2.114355e+001  5.410022e+001 -6.924109e+000  1.389471e+002
5.4711875000e+009 -6.766698e+000  1.794555e+002 -3.692644e+001  1.440466e+002  2.132397e+001  5.420256e+001 -6.781225e+000  1.409048e+002
5.4713125000e+009 -6.737751e+000  1.794624e+002 -3.753565e+001  1.425783e+002  2.134593e+001  5.332668e+001 -6.295325e+000  1.381161e+002
5.4714375000e+009 -6.722087e+000  1.794874e+002 -3.704443e+001  1.502722e+002  2.140326e+001  5.289572e+001 -6.427896e+000  1.381591e+002
5.4715625000e+009 -6.806025e+000  1.795646e+002 -3.765218e+001  1.382234e+002  2.148888e+001  5.330616e+001 -6.591139e+000  1.384798e+002
5.4716875000e+009 -6.686354e+000  1.792647e+002 -3.732852e+001  1.490932e+002  2.154956e+001  5.247950e+001 -6.191651e+000  1.365401e+002
5.4718125000e+009 -6.800493e+000  1.796932e+002 -3.756627e+001  1.410489e+002  2.162535e+001  5.233011e+001 -6.285861e+000  1.370704e+002
5.4719375000e+009 -6.769343e+000 -1.795140e+002 -3.725897e+001  1.470829e+002  2.159817e+001  5.183141e+001 -6.241027e+000  1.357343e+002
5.4720625000e+009 -6.736732e+000 -1.793573e+002 -3.777766e+001  1.487968e+002  2.168073e+001  5.087974e+001 -5.937842e+000  1.341860e+002
5.4721875000e+009 -6.631687e+000  1.794000e+002 -3.577636e+001  1.495295e+002  2.173189e+001  5.115740e+001 -6.117718e+000  1.357592e+002
5.4723125000e+009 -6.879665e+000 -1.797287e+002 -3.725272e+001  1.460835e+002  2.173631e+001  5.133922e+001 -6.249145e+000  1.336789e+002
5.4724375000e+009 -6.773137e+000 -1.799938e+002 -3.594259e+001  1.450026e+002  2.176493e+001  4.951942e+001 -5.558985e+000  1.329452e+002
5.4725625000e+009 -6.671130e+000  1.793967e+002 -3.629852e+001  1.475139e+002  2.184626e+001  5.039374e+001 -5.983638e+000  1.337071e+002
5.4726875000e+009 -6.999167e+000 -1.795624e+002 -3.624119e+001  1.444911e+002  2.194641e+001  4.979154e+001 -5.701784e+000  1.329084e+002
5.4728125000e+009 -6.873122e+000 -1.799842e+002 -3.714870e+001  1.406969e+002  2.201756e+001  4.897540e+001 -5.508342e+000  1.319996e+002
5.4729375000e+009 -6.876352e+000  1.799689e+002 -3.687716e+001  1.430101e+002  2.202346e+001  4.804810e+001 -5.262575e+000  1.312101e+002
5.4730625000e+009 -6.980607e+000 -1.795947e+002 -3.636948e+001  1.397928e+002  2.201476e+001  4.953878e+001 -5.875070e+000  1.308472e+002
5.4731875000e+009 -6.837647e+000 -1.789413e+002 -3.669915e+001  1.512591e+002  2.220298e+001  4.678399e+001 -5.066559e+000  1.317310e+002
5.4733125000e+009 -6.894274e+000 -1.790943e+002 -3.693668e+001  1.383236e+002  2.208193e+001  4.798606e+001 -5.406670e+000  1.294624e+002
5.4734375000e+009 -7.014223e+000 -1.786915e+002 -3.560051e+001  1.448472e+002  2.206176e+001  4.854860e+001 -5.671704e+000  1.293904e+002
5.4735625000e+009 -6.969813e+000 -1.798299e+002 -3.540777e+001  1.451800e+002  2.224207e+001  4.694893e+001 -5.132855e+000  1.302657e+002
5.4736875000e+009 -6.849539e+000 -1.795123e+002 -3.591909e+001  1.500842e+002  2.227647e+001  4.627629e+001 -5.059138e+000  1.296184e+002
5.4738125000e+009 -7.035213e+000 -1.790207e+002 -3.707365e+001  1.432777e+002  2.223405e+001  4.739509e+001 -5.405543e+000  1.279700e+002
5.4739375000e+009 -6.837132e+000 -1.797677e+002 -3.648440e+001  1.438745e+002  2.243366e+001  4.562268e+001 -4.892667e+000  1.289469e+002
5.4740625000e+009 -6.887491e+000 -1.793314e+002 -3.614909e+001  1.435623e+002  2.240482e+001  4.582912e+001 -5.006704e+000  1.285211e+002
5.4741875000e+009 -7.188956e+000 -1.789101e+002 -3.630466e+001  1.401082e+002  2.240907e+001  4.631132e+001 -5.166911e+000  1.274375e+002
5.4743125000e+009 -6.771584e+000 -1.792569e+002 -3.651046e+001  1.475484e+002  2.242035e+001  4.442300e+001 -4.774934e+000  1.270835e+002
5.4744375000e+009 -6.951579e+000 -1.798575e+002 -3.577694e+001  1.452017e+002  2.240946e+001  4.481416e+001 -4.789435e+000  1.265631e+002
5.4745625000e+009 -6.997794e+000 -1.790062e+002 -3.694895e+001  1.460595e+002  2.250956e+001  4.451907e+001 -4.832897e+000  1.262447e+002
5.4746875000e+009 -7.192859e+000 -1.790970e+002 -3.598104e+001  1.433735e+002  2.264679e+001  4.330313e+001 -4.514511e+000  1.267946e+002
5.4748125000e+009 -7.006331e+000 -1.790083e+002 -3.625180e+001  1.427673e+002  2.251294e+001  4.462053e+001 -4.898875e+000  1.249388e+002
5.4749375000e+009 -7.161036e+000 -1.785439e+002 -3.626578e+001  1.432451e+002  2.257779e+001  4.394712e+001 -4.766313e+000  1.251068e+002
5.4750625000e+009 -7.212299e+000 -1.777607e+002 -3.647293e+001  1.419576e+002  2.271033e+001  4.281246e+001 -4.502103e+000  1.250035e+002
5.4751875000e+009 -6.726511e+000 -1.791350e+002 -3.506002e+001  1.466376e+002  2.274826e+001  4.232472e+001 -4.364668e+000  1.264341e+002
5.4753125000e+009 -7.361073e+000 -1.786618e+002 -3.469075e+001  1.403142e+002  2.266512e+001  4.303013e+001 -4.492877e+000  1.248509e+002
5.4754375000e+009 -7.129474e+000 -1.780388e+002 -3.522326e+001  1.476430e+002  2.268140e+001  4.222187e+001 -4.502995e+000  1.242665e+002
5.4755625000e+009 -7.414963e+000 -1.789136e+002 -3.643903e+001  1.424656e+002  2.279304e+001  4.156781e+001 -4.304726e+000  1.236933e+002
5.4756875000e+009 -6.948293e+000 -1.796820e+002 -3.547625e+001  1.435945e+002  2.261045e+001  4.203271e+001 -4.488895e+000  1.230883e+002
5.4758125000e+009 -7.167754e+000 -1.790155e+002 -3.548219e+001  1.401595e+002  2.276261e+001  4.149321e+001 -4.288655e+000  1.235364e+002
5.4759375000e+009 -7.222482e+000 -1.788170e+002 -3.576141e+001  1.427758e+002  2.274132e+001  4.079368e+001 -4.291043e+000  1.230500e+002
5.4760625000e+009 -7.167236e+000  1.791304e+002 -3.541507e+001  1.427184e+002  2.262877e+001  4.181260e+001 -4.457266e+000  1.222095e+002
5.4761875000e+009 -7.238020e+000  1.798586e+002 -3.472195e+001  1.462994e+002  2.274717e+001  4.079901e+001 -4.293602e+000  1.227892e+002
5.4763125000e+009 -6.989328e+000  1.795247e+002 -3.594353e+001  1.435547e+002  2.271038e+001  4.006089e+001 -4.170551e+000  1.216584e+002
5.4764375000e+009 -7.491897e+000  1.795761e+002 -3.538211e+001  1.378493e+002  2.276596e+001  4.046109e+001 -4.150269e+000  1.215042e+002
5.4765625000e+009 -7.347299e+000  1.797574e+002 -3.559417e+001  1.365974e+002  2.291088e+001  3.943378e+001 -3.977997e+000  1.221396e+002
5.4766875000e+009 -7.227102e+000  1.789025e+002 -3.449345e+001  1.428957e+002  2.280537e+001  3.921675e+001 -3.999178e+000  1.223596e+002
5.4768125000e+009 -7.586810e+000  1.799935e+002 -3.545253e+001  1.355368e+002  2.288197e+001  3.939672e+001 -3.991811e+000  1.212497e+002
5.4769375000e+009 -7.502034e+000  1.788816e+002 -3.522467e+001  1.379132e+002  2.295922e+001  3.866698e+001 -3.874413e+000  1.217864e+002
5.4770625000e+009 -7.554153e+000  1.787400e+002 -3.521665e+001  1.398273e+002  2.284477e+001  3.903347e+001 -4.000247e+000  1.210323e+002
5.4771875000e+009 -7.662407e+000  1.780223e+002 -3.524023e+001  1.426514e+002  2.283033e+001  3.894468e+001 -4.064478e+000  1.204956e+002
5.4773125000e+009 -7.563800e+000  1.791607e+002 -3.502290e+001  1.378119e+002  2.289754e+001  3.829483e+001 -3.894947e+000  1.201245e+002
5.4774375000e+009 -6.969357e+000  1.793240e+002 -3.518980e+001  1.404527e+002  2.288921e+001  3.737267e+001 -3.814113e+000  1.206946e+002
5.4775625000e+009 -7.651025e+000  1.769449e+002 -3.431196e+001  1.392245e+002  2.294154e+001  3.823508e+001 -3.899154e+000  1.212106e+002
5.4776875000e+009 -7.924039e+000  1.769118e+002 -3.528971e+001  1.339830e+002  2.304063e+001  3.753019e+001 -3.720899e+000  1.201884e+002
5.4778125000e+009 -7.349569e+000  1.774596e+002 -3.425695e+001  1.384273e+002  2.293297e+001  3.717921e+001 -3.720346e+000  1.205523e+002
5.4779375000e+009 -7.654662e+000  1.780485e+002 -3.574236e+001  1.472057e+002  2.293337e+001  3.725264e+001 -3.968224e+000  1.194205e+002
5.4780625000e+009 -7.777188e+000  1.767675e+002 -3.546468e+001  1.365900e+002  2.292225e+001  3.657244e+001 -3.737740e+000  1.187548e+002
5.4781875000e+009 -7.292526e+000  1.773593e+002 -3.488795e+001  1.334427e+002  2.298227e+001  3.617228e+001 -3.563817e+000  1.192987e+002
5.4783125000e+009 -7.970850e+000  1.763096e+002 -3.586974e+001  1.408048e+002  2.288607e+001  3.691945e+001 -3.867671e+000  1.183089e+002
5.4784375000e+009 -7.633799e+000  1.757906e+002 -3.517682e+001  1.373206e+002  2.294579e+001  3.631240e+001 -3.685744e+000  1.185391e+002
5.4785625000e+009 -7.526889e+000  1.759250e+002 -3.458299e+001  1.360213e+002  2.299411e+001  3.577981e+001 -3.606179e+000  1.187910e+002
5.4786875000e+009 -7.643497e+000  1.762123e+002 -3.433336e+001  1.377088e+002  2.291700e+001  3.562185e+001 -3.657480e+000  1.186887e+002
5.4788125000e+009 -7.944717e+000  1.775910e+002 -3.504116e+001  1.387983e+002  2.306535e+001  3.509227e+001 -3.639342e+000  1.185797e+002
5.4789375000e+009 -7.681656e+000  1.767628e+002 -3.438300e+001  1.251844e+002  2.303487e+001  3.444712e+001 -3.300347e+000  1.176193e+002
5.4790625000e+009 -7.687670e+000  1.775891e+002 -3.466389e+001  1.324749e+002  2.295602e+001  3.484408e+001 -3.524724e+000  1.177257e+002
5.4791875000e+009 -7.957769e+000  1.748584e+002 -3.489023e+001  1.275125e+002  2.309735e+001  3.444608e+001 -3.402542e+000  1.173550e+002
5.4793125000e+009 -7.316327e+000  1.748307e+002 -3.482714e+001  1.327691e+002  2.298642e+001  3.445747e+001 -3.475421e+000  1.173331e+002
5.4794375000e+009 -7.858136e+000  1.746514e+002 -3.412754e+001  1.356968e+002  2.296457e+001  3.448944e+001 -3.503227e+000  1.176675e+002
5.4795625000e+009 -8.151664e+000  1.747237e+002 -3.518854e+001  1.304088e+002  2.312704e+001  3.375839e+001 -3.406818e+000  1.166142e+002
5.4796875000e+009 -7.515574e+000  1.758444e+002 -3.437224e+001  1.330932e+002  2.300939e+001  3.348518e+001 -3.415196e+000  1.168685e+002
5.4798125000e+009 -7.913530e+000  1.743827e+002 -3.438305e+001  1.345182e+002  2.301846e+001  3.351659e+001 -3.437080e+000  1.166711e+002
5.4799375000e+009 -8.134674e+000  1.753102e+002 -3.526486e+001  1.342763e+002  2.308957e+001  3.300449e+001 -3.402139e+000  1.162172e+002
5.4800625000e+009 -7.856482e+000  1.763802e+002 -3.383389e+001  1.362386e+002  2.301552e+001  3.292754e+001 -3.359275e+000  1.172020e+002
5.4801875000e+009 -8.284557e+000  1.722839e+002 -3.471988e+001  1.281454e+002  2.310010e+001  3.288089e+001 -3.291945e+000  1.157715e+002
5.4803125000e+009 -8.294439e+000  1.716904e+002 -3.389246e+001  1.286519e+002  2.308410e+001  3.274398e+001 -3.233016e+000  1.161850e+002
5.4804375000e+009 -7.765625e+000  1.760757e+002 -3.545818e+001  1.369084e+002  2.302393e+001  3.207141e+001 -3.466952e+000  1.159808e+002
5.4805625000e+009 -8.179852e+000  1.730641e+002 -3.386497e+001  1.322983e+002  2.298348e+001  3.225271e+001 -3.340870e+000  1.159175e+002
5.4806875000e+009 -8.122097e+000  1.726618e+002 -3.416071e+001  1.292556e+002  2.313194e+001  3.235713e+001 -3.255603e+000  1.159166e+002
5.4808125000e+009 -7.889182e+000  1.740188e+002 -3.396434e+001  1.327074e+002  2.304421e+001  3.152018e+001 -3.214036e+000  1.158617e+002
5.4809375000e+009 -8.173023e+000  1.747201e+002 -3.425134e+001  1.341433e+002  2.302786e+001  3.173097e+001 -3.318203e+000  1.159768e+002
5.4810625000e+009 -8.181910e+000  1.741344e+002 -3.504375e+001  1.348960e+002  2.310557e+001  3.101549e+001 -3.371829e+000  1.150193e+002
5.4811875000e+009 -8.181802e+000  1.739213e+002 -3.474589e+001  1.326553e+002  2.315555e+001  3.097399e+001 -3.309236e+000  1.148017e+002
5.4813125000e+009 -8.071377e+000  1.733238e+002 -3.380820e+001  1.338539e+002  2.302493e+001  3.098300e+001 -3.264685e+000  1.153739e+002
5.4814375000e+009 -8.080922e+000  1.744828e+002 -3.454778e+001  1.267568e+002  2.308171e+001  3.067196e+001 -3.196894e+000  1.146231e+002
5.4815625000e+009 -8.349784e+000  1.708053e+002 -3.415404e+001  1.292790e+002  2.308884e+001  3.063198e+001 -3.178954e+000  1.146827e+002
5.4816875000e+009 -8.132628e+000  1.716022e+002 -3.382678e+001  1.372424e+002  2.299754e+001  3.062986e+001 -3.370905e+000  1.151817e+002
5.4818125000e+009 -8.244544e+000  1.720441e+002 -3.349271e+001  1.295288e+002  2.305970e+001  3.006184e+001 -3.109234e+000  1.145436e+002
5.4819375000e+009 -8.043199e+000  1.748080e+002 -3.472067e+001  1.326193e+002  2.304764e+001  2.931715e+001 -3.197165e+000  1.137111e+002
5.4820625000e+009 -8.384805e+000  1.735874e+002 -3.390815e+001  1.271632e+002  2.304787e+001  2.961698e+001 -3.141123e+000  1.139067e+002
5.4821875000e+009 -8.239781e+000  1.701468e+002 -3.440577e+001  1.292319e+002  2.306330e+001  2.977392e+001 -3.220932e+000  1.135888e+002
5.4823125000e+009 -8.293507e+000  1.726672e+002 -3.471312e+001  1.280521e+002  2.312053e+001  2.927482e+001 -3.149388e+000  1.131610e+002
5.4824375000e+009 -8.322135e+000  1.706811e+002 -3.448523e+001  1.247305e+002  2.303829e+001  2.927839e+001 -3.204090e+000  1.132687e+002
5.4825625000e+009 -8.389919e+000  1.693869e+002 -3.440075e+001  1.336578e+002  2.308251e+001  2.910492e+001 -3.247587e+000  1.135102e+002
5.4826875000e+009 -8.672384e+000  1.696853e+002 -3.511621e+001  1.259232e+002  2.313207e+001  2.873782e+001 -3.153814e+000  1.122873e+002
5.4828125000e+009 -8.693242e+000  1.736952e+002 -3.447902e+001  1.238434e+002  2.315071e+001  2.832275e+001 -3.125095e+000  1.123766e+002
5.4829375000e+009 -8.391848e+000  1.686488e+002 -3.498260e+001  1.292587e+002  2.310807e+001  2.833160e+001 -3.113861e+000  1.124999e+002
5.4830625000e+009 -8.295067e+000  1.707371e+002 -3.466055e+001  1.293060e+002  2.310191e+001  2.798598e+001 -3.120689e+000  1.122165e+002
5.4831875000e+009 -8.626902e+000  1.677679e+002 -3.414365e+001  1.255963e+002  2.313308e+001  2.809929e+001 -3.075250e+000  1.129182e+002
5.4833125000e+009 -8.751547e+000  1.665337e+002 -3.383396e+001  1.285703e+002  2.312408e+001  2.832728e+001 -3.129486e+000  1.127306e+002
5.4834375000e+009 -8.390007e+000  1.683204e+002 -3.445312e+001  1.271744e+002  2.312066e+001  2.769831e+001 -3.051648e+000  1.119933e+002
5.4835625000e+009 -8.296041e+000  1.716393e+002 -3.399249e+001  1.299201e+002  2.309315e+001  2.681306e+001 -3.038682e+000  1.123057e+002
5.4836875000e+009 -8.805120e+000  1.684280e+002 -3.363685e+001  1.223021e+002  2.316646e+001  2.693545e+001 -2.905628e+000  1.120718e+002
5.4838125000e+009 -8.517101e+000  1.682840e+002 -3.446521e+001  1.278179e+002  2.309636e+001  2.687490e+001 -3.138705e+000  1.115512e+002
5.4839375000e+009 -8.407229e+000  1.698296e+002 -3.405263e+001  1.291532e+002  2.308180e+001  2.644660e+001 -3.084724e+000  1.119975e+002
5.4840625000e+009 -8.682464e+000  1.672722e+002 -3.365181e+001  1.228271e+002  2.310388e+001  2.659362e+001 -2.984157e+000  1.112177e+002
5.4841875000e+009 -8.619091e+000  1.706054e+002 -3.429320e+001  1.270886e+002  2.310526e+001  2.609285e+001 -3.091620e+000  1.114538e+002
5.4843125000e+009 -8.628667e+000  1.696023e+002 -3.401738e+001  1.236143e+002  2.309447e+001  2.617612e+001 -3.077759e+000  1.109774e+002
5.4844375000e+009 -8.711249e+000  1.651362e+002 -3.400801e+001  1.229089e+002  2.314184e+001  2.602569e+001 -2.987432e+000  1.106534e+002
5.4845625000e+009 -8.611895e+000  1.688312e+002 -3.458213e+001  1.197505e+002  2.312184e+001  2.554657e+001 -3.000627e+000  1.099501e+002
5.4846875000e+009 -8.548136e+000  1.678148e+002 -3.410374e+001  1.251186e+002  2.304052e+001  2.615975e+001 -3.226525e+000  1.109287e+002
5.4848125000e+009 -8.663836e+000  1.656049e+002 -3.355493e+001  1.248706e+002  2.309086e+001  2.577411e+001 -3.082532e+000  1.107274e+002
5.4849375000e+009 -8.814020e+000  1.695208e+002 -3.408815e+001  1.253292e+002  2.312471e+001  2.469442e+001 -3.009590e+000  1.102745e+002
5.4850625000e+009 -8.273097e+000  1.676493e+002 -3.446439e+001  1.244978e+002  2.308038e+001  2.514973e+001 -3.141686e+000  1.105460e+002
5.4851875000e+009 -8.587281e+000  1.672835e+002 -3.457845e+001  1.253556e+002  2.314007e+001  2.497288e+001 -3.173621e+000  1.101866e+002
5.4853125000e+009 -8.736094e+000  1.668110e+002 -3.326103e+001  1.188342e+002  2.306887e+001  2.470620e+001 -2.880331e+000  1.094545e+002
5.4854375000e+009 -8.999918e+000  1.664898e+002 -3.363248e+001  1.186710e+002  2.312886e+001  2.445609e+001 -2.946742e+000  1.094767e+002
5.4855625000e+009 -8.795101e+000  1.638372e+002 -3.403637e+001  1.244167e+002  2.314274e+001  2.437427e+001 -3.041309e+000  1.099318e+002
5.4856875000e+009 -8.841790e+000  1.652529e+002 -3.393159e+001  1.200998e+002  2.312116e+001  2.389885e+001 -2.920453e+000  1.088933e+002
5.4858125000e+009 -8.750218e+000  1.662153e+002 -3.326667e+001  1.231054e+002  2.312239e+001  2.395012e+001 -2.977077e+000  1.098347e+002
5.4859375000e+009 -8.693995e+000  1.625190e+002 -3.422286e+001  1.166841e+002  2.306965e+001  2.395107e+001 -2.967786e+000  1.080310e+002
5.4860625000e+009 -8.772831e+000  1.657449e+002 -3.371067e+001  1.225135e+002  2.313498e+001  2.376405e+001 -3.074770e+000  1.094842e+002
5.4861875000e+009 -8.734224e+000  1.648269e+002 -3.408709e+001  1.195190e+002  2.301660e+001  2.336130e+001 -3.054371e+000  1.080229e+002
5.4863125000e+009 -8.806518e+000  1.617861e+002 -3.374639e+001  1.210996e+002  2.304562e+001  2.347265e+001 -3.059041e+000  1.083415e+002
5.4864375000e+009 -8.906405e+000  1.672075e+002 -3.410886e+001  1.210551e+002  2.305417e+001  2.288621e+001 -3.089070e+000  1.080494e+002
5.4865625000e+009 -9.324813e+000  1.652450e+002 -3.388667e+001  1.147719e+002  2.309143e+001  2.315481e+001 -3.087235e+000  1.073056e+002
5.4866875000e+009 -9.239182e+000  1.623685e+002 -3.335182e+001  1.147848e+002  2.316458e+001  2.290333e+001 -2.955365e+000  1.076863e+002
5.4868125000e+009 -9.089972e+000  1.635044e+002 -3.334805e+001  1.212940e+002  2.314994e+001  2.195059e+001 -2.899385e+000  1.084244e+002
5.4869375000e+009 -8.976753e+000  1.610592e+002 -3.306359e+001  1.175674e+002  2.310405e+001  2.336662e+001 -3.111235e+000  1.078504e+002
5.4870625000e+009 -8.946479e+000  1.657953e+002 -3.501182e+001  1.163858e+002  2.316467e+001  2.157175e+001 -3.121895e+000  1.073276e+002
5.4871875000e+009 -9.109453e+000  1.627527e+002 -3.336510e+001  1.170633e+002  2.317374e+001  2.153777e+001 -2.896919e+000  1.074630e+002
5.4873125000e+009 -9.384261e+000  1.640961e+002 -3.329416e+001  1.176434e+002  2.316407e+001  2.173492e+001 -3.001790e+000  1.076030e+002
5.4874375000e+009 -9.056950e+000  1.630075e+002 -3.357450e+001  1.134624e+002  2.309087e+001  2.184586e+001 -3.041436e+000  1.065282e+002
5.4875625000e+009 -9.344481e+000  1.636488e+002 -3.374187e+001  1.158893e+002  2.314470e+001  2.134202e+001 -3.044538e+000  1.067036e+002
5.4876875000e+009 -8.967153e+000  1.613671e+002 -3.398274e+001  1.137157e+002  2.315059e+001  2.142039e+001 -3.067631e+000  1.064119e+002
5.4878125000e+009 -8.989964e+000  1.606261e+002 -3.388350e+001  1.176918e+002  2.308774e+001  2.204557e+001 -3.249688e+000  1.067016e+002
5.4879375000e+009 -9.048008e+000  1.631674e+002 -3.362032e+001  1.171420e+002  2.308953e+001  2.054772e+001 -3.041287e+000  1.063162e+002
5.4880625000e+009 -9.011471e+000  1.614719e+002 -3.391973e+001  1.155051e+002  2.304347e+001  2.141415e+001 -3.249754e+000  1.058959e+002
5.4881875000e+009 -9.421488e+000  1.606723e+002 -3.324053e+001  1.124332e+002  2.318470e+001  2.037678e+001 -2.951365e+000  1.059777e+002
5.4883125000e+009 -9.351398e+000  1.637245e+002 -3.410456e+001  1.103810e+002  2.306440e+001  2.005709e+001 -3.161526e+000  1.047873e+002
5.4884375000e+009 -9.111249e+000  1.612410e+002 -3.325520e+001  1.102167e+002  2.306360e+001  2.027048e+001 -3.052335e+000  1.049735e+002
5.4885625000e+009 -9.089650e+000  1.599537e+002 -3.264295e+001  1.172421e+002  2.310121e+001  2.039252e+001 -3.056401e+000  1.064415e+002
5.4886875000e+009 -9.090240e+000  1.609990e+002 -3.344932e+001  1.104889e+002  2.307668e+001  1.978714e+001 -3.125700e+000  1.046898e+002
5.4888125000e+009 -9.235039e+000  1.634438e+002 -3.374872e+001  1.127987e+002  2.303412e+001  1.985162e+001 -3.279794e+000  1.047550e+002
5.4889375000e+009 -9.106787e+000  1.590644e+002 -3.300895e+001  1.101558e+002  2.303307e+001  1.964432e+001 -3.081050e+000  1.043407e+002
5.4890625000e+009 -9.362743e+000  1.625249e+002 -3.310544e+001  1.090434e+002  2.304256e+001  1.896155e+001 -3.132368e+000  1.038853e+002
5.4891875000e+009 -9.318032e+000  1.606903e+002 -3.369416e+001  1.124496e+002  2.300011e+001  1.980338e+001 -3.368867e+000  1.041312e+002
5.4893125000e+009 -8.946581e+000  1.590724e+002 -3.310226e+001  1.129604e+002  2.302243e+001  1.989390e+001 -3.277156e+000  1.044193e+002
5.4894375000e+009 -9.169998e+000  1.618600e+002 -3.457870e+001  1.086233e+002  2.295501e+001  1.847163e+001 -3.369445e+000  1.026620e+002
5.4895625000e+009 -9.073718e+000  1.610075e+002 -3.379725e+001  1.176854e+002  2.288791e+001  1.971605e+001 -3.548741e+000  1.040015e+002
5.4896875000e+009 -8.904132e+000  1.589310e+002 -3.335683e+001  1.153204e+002  2.299914e+001  1.948012e+001 -3.423347e+000  1.044075e+002
5.4898125000e+009 -9.034916e+000  1.601196e+002 -3.434664e+001  1.125772e+002  2.303227e+001  1.789027e+001 -3.389860e+000  1.032745e+002
5.4899375000e+009 -8.963488e+000  1.592374e+002 -3.393355e+001  1.123223e+002  2.289576e+001  1.935325e+001 -3.617354e+000  1.026263e+002
5.4900625000e+009 -8.900094e+000  1.602744e+002 -3.400937e+001  1.041456e+002  2.293562e+001  1.906278e+001 -3.550188e+000  1.018156e+002
5.4901875000e+009 -9.113833e+000  1.596880e+002 -3.390842e+001  1.077397e+002  2.301316e+001  1.782513e+001 -3.436341e+000  1.022723e+002
5.4903125000e+009 -8.877422e+000  1.580565e+002 -3.327098e+001  1.145519e+002  2.298019e+001  1.866618e+001 -3.525719e+000  1.033204e+002
5.4904375000e+009 -9.060410e+000  1.598193e+002 -3.391270e+001  1.095948e+002  2.299772e+001  1.829905e+001 -3.600245e+000  1.025108e+002
5.4905625000e+009 -9.065580e+000  1.595216e+002 -3.408685e+001  1.061889e+002  2.306782e+001  1.713142e+001 -3.463613e+000  1.019428e+002
5.4906875000e+009 -9.095653e+000  1.584455e+002 -3.329079e+001  1.077976e+002  2.290592e+001  1.800126e+001 -3.547122e+000  1.014086e+002
5.4908125000e+009 -8.940040e+000  1.572751e+002 -3.340025e+001  1.079235e+002  2.294419e+001  1.909127e+001 -3.739597e+000  1.015996e+002
5.4909375000e+009 -9.203544e+000  1.583093e+002 -3.362046e+001  1.051870e+002  2.308400e+001  1.653890e+001 -3.461475e+000  1.012804e+002
5.4910625000e+009 -9.010648e+000  1.583770e+002 -3.384762e+001  1.077293e+002  2.291931e+001  1.763736e+001 -3.732908e+000  1.009213e+002
5.4911875000e+009 -8.995955e+000  1.574974e+002 -3.396498e+001  1.094818e+002  2.290144e+001  1.778362e+001 -3.771355e+000  1.011075e+002
5.4913125000e+009 -8.988599e+000  1.581694e+002 -3.376752e+001  1.062635e+002  2.290550e+001  1.781187e+001 -3.809475e+000  1.004992e+002
5.4914375000e+009 -8.816870e+000  1.568534e+002 -3.333094e+001  1.088258e+002  2.288718e+001  1.794971e+001 -3.798866e+000  1.007918e+002
5.4915625000e+009 -8.931184e+000  1.575867e+002 -3.367384e+001  1.074603e+002  2.287893e+001  1.711893e+001 -3.821771e+000  1.000657e+002
5.4916875000e+009 -9.077539e+000  1.572924e+002 -3.324906e+001  1.046589e+002  2.292564e+001  1.630653e+001 -3.664926e+000  9.966028e+001
5.4918125000e+009 -8.959644e+000  1.570890e+002 -3.472612e+001  1.115476e+002  2.287162e+001  1.690104e+001 -4.042177e+000  9.999211e+001
5.4919375000e+009 -9.116827e+000  1.570940e+002 -3.302871e+001  1.029282e+002  2.288441e+001  1.680468e+001 -3.790547e+000  9.874368e+001
5.4920625000e+009 -9.048537e+000  1.571389e+002 -3.386776e+001  1.061802e+002  2.294789e+001  1.605388e+001 -3.866503e+000  9.926258e+001
5.4921875000e+009 -8.954376e+000  1.563343e+002 -3.376352e+001  1.059334e+002  2.283389e+001  1.622300e+001 -3.934112e+000  9.854771e+001
5.4923125000e+009 -9.034383e+000  1.571435e+002 -3.400741e+001  9.854952e+001  2.279123e+001  1.667979e+001 -4.102657e+000  9.710699e+001
5.4924375000e+009 -8.909058e+000  1.566874e+002 -3.460804e+001  1.012362e+002  2.281725e+001  1.611016e+001 -4.125629e+000  9.730282e+001
5.4925625000e+009 -9.085289e+000  1.553529e+002 -3.275985e+001  1.055304e+002  2.294036e+001  1.599945e+001 -3.853201e+000  9.863752e+001
5.4926875000e+009 -9.026914e+000  1.551838e+002 -3.356446e+001  1.042106e+002  2.286386e+001  1.596095e+001 -4.041532e+000  9.770547e+001
5.4928125000e+009 -8.968867e+000  1.554185e+002 -3.366904e+001  1.075012e+002  2.283286e+001  1.583227e+001 -4.123842e+000  9.804170e+001
5.4929375000e+009 -9.006417e+000  1.559049e+002 -3.415596e+001  9.984009e+001  2.282023e+001  1.571739e+001 -4.210509e+000  9.643947e+001
5.4930625000e+009 -9.035569e+000  1.548562e+002 -3.361530e+001  1.025951e+002  2.274722e+001  1.619240e+001 -4.247685e+000  9.639895e+001
5.4931875000e+009 -8.898741e+000  1.552297e+002 -3.448013e+001  1.029517e+002  2.288744e+001  1.498895e+001 -4.231768e+000  9.673332e+001
5.4933125000e+009 -9.133878e+000  1.550709e+002 -3.377961e+001  1.020341e+002  2.282943e+001  1.531106e+001 -4.233377e+000  9.631590e+001
5.4934375000e+009 -8.992342e+000  1.550511e+002 -3.433209e+001  9.893034e+001  2.272607e+001  1.527775e+001 -4.375103e+000  9.495723e+001
5.4935625000e+009 -9.059632e+000  1.553501e+002 -3.412079e+001  9.702312e+001  2.288604e+001  1.465468e+001 -4.291355e+000  9.530060e+001
5.4936875000e+009 -8.998752e+000  1.545255e+002 -3.425750e+001  1.022349e+002  2.285941e+001  1.464223e+001 -4.335769e+000  9.589774e+001
5.4938125000e+009 -9.139629e+000  1.536088e+002 -3.371933e+001  1.000348e+002  2.277549e+001  1.526231e+001 -4.420884e+000  9.476331e+001
5.4939375000e+009 -9.105755e+000  1.543127e+002 -3.340023e+001  1.006489e+002  2.282060e+001  1.476976e+001 -4.372278e+000  9.503984e+001
5.4940625000e+009 -9.110129e+000  1.539397e+002 -3.361506e+001  9.931404e+001  2.275300e+001  1.442687e+001 -4.353983e+000  9.418972e+001
5.4941875000e+009 -9.049519e+000  1.531252e+002 -3.384606e+001  1.024059e+002  2.270626e+001  1.459159e+001 -4.489085e+000  9.410650e+001
5.4943125000e+009 -9.150492e+000  1.537093e+002 -3.376617e+001  1.013496e+002  2.286261e+001  1.397524e+001 -4.440929e+000  9.471124e+001
5.4944375000e+009 -9.120201e+000  1.532623e+002 -3.420544e+001  9.965823e+001  2.279349e+001  1.386200e+001 -4.539721e+000  9.375176e+001
5.4945625000e+009 -9.068257e+000  1.527194e+002 -3.413358e+001  9.981359e+001  2.261424e+001  1.370329e+001 -4.561790e+000  9.217316e+001
5.4946875000e+009 -9.076889e+000  1.526552e+002 -3.383820e+001  9.799412e+001  2.279555e+001  1.349274e+001 -4.536955e+000  9.286994e+001
5.4948125000e+009 -9.125049e+000  1.529918e+002 -3.518732e+001  9.912083e+001  2.268793e+001  1.381557e+001 -4.875242e+000  9.237424e+001
5.4949375000e+009 -9.276921e+000  1.509676e+002 -3.317983e+001  1.008774e+002  2.269489e+001  1.335046e+001 -4.499892e+000  9.237507e+001
5.4950625000e+009 -9.212810e+000  1.528871e+002 -3.414898e+001  9.377164e+001  2.280964e+001  1.313116e+001 -4.692572e+000  9.171602e+001
5.4951875000e+009 -9.204314e+000  1.518582e+002 -3.371223e+001  9.995359e+001  2.284672e+001  1.326743e+001 -4.693066e+000  9.266505e+001
5.4953125000e+009 -9.412570e+000  1.522393e+002 -3.347179e+001  8.766686e+001  2.275073e+001  1.303679e+001 -4.740868e+000  8.986439e+001
5.4954375000e+009 -8.966681e+000  1.521277e+002 -3.488435e+001  9.916940e+001  2.275911e+001  1.279300e+001 -4.862574e+000  9.157679e+001
5.4955625000e+009 -9.154685e+000  1.512070e+002 -3.355147e+001  9.797047e+001  2.281151e+001  1.299045e+001 -4.776543e+000  9.201701e+001
5.4956875000e+009 -9.417572e+000  1.507958e+002 -3.400908e+001  9.174306e+001  2.271982e+001  1.286411e+001 -4.935867e+000  8.945586e+001
5.4958125000e+009 -9.250513e+000  1.511519e+002 -3.358361e+001  9.633971e+001  2.271968e+001  1.223461e+001 -4.756353e+000  9.010149e+001
5.4959375000e+009 -8.983965e+000  1.510775e+002 -3.488282e+001  1.007160e+002  2.262613e+001  1.201917e+001 -4.966742e+000  9.001489e+001
5.4960625000e+009 -9.406071e+000  1.500769e+002 -3.458265e+001  9.347280e+001  2.267562e+001  1.185265e+001 -4.953385e+000  8.874096e+001
5.4961875000e+009 -9.184796e+000  1.491606e+002 -3.490515e+001  9.797210e+001  2.276345e+001  1.179051e+001 -5.051927e+000  9.009528e+001
5.4963125000e+009 -9.246805e+000  1.503222e+002 -3.478881e+001  9.049027e+001  2.274806e+001  1.203712e+001 -5.159693e+000  8.861968e+001
5.4964375000e+009 -9.437248e+000  1.481423e+002 -3.388955e+001  9.532322e+001  2.282011e+001  1.158610e+001 -4.965327e+000  8.900549e+001
5.4965625000e+009 -9.405757e+000  1.492917e+002 -3.479986e+001  9.185172e+001  2.274952e+001  1.158085e+001 -5.224149e+000  8.802301e+001
5.4966875000e+009 -9.192326e+000  1.499443e+002 -3.422405e+001  9.254276e+001  2.274936e+001  1.144844e+001 -5.081968e+000  8.810622e+001
5.4968125000e+009 -9.307726e+000  1.487829e+002 -3.512063e+001  9.171099e+001  2.274501e+001  1.133366e+001 -5.285747e+000  8.761803e+001
5.4969375000e+009 -9.234960e+000  1.495684e+002 -3.521788e+001  9.132301e+001  2.272744e+001  1.117353e+001 -5.374398e+000  8.727375e+001
5.4970625000e+009 -9.241814e+000  1.488399e+002 -3.398626e+001  9.484743e+001  2.272168e+001  1.093340e+001 -5.145840e+000  8.774433e+001
5.4971875000e+009 -9.600399e+000  1.471231e+002 -3.372169e+001  9.180854e+001  2.270842e+001  1.070396e+001 -5.189855e+000  8.581475e+001
5.4973125000e+009 -9.485166e+000  1.481783e+002 -3.414426e+001  8.851736e+001  2.269234e+001  1.041340e+001 -5.236096e+000  8.495580e+001
5.4974375000e+009 -9.302524e+000  1.484187e+002 -3.396183e+001  9.011420e+001  2.268491e+001  1.042346e+001 -5.223635e+000  8.522015e+001
5.4975625000e+009 -9.589884e+000  1.493780e+002 -3.490739e+001  9.004176e+001  2.270412e+001  9.860913e+000 -5.351948e+000  8.504756e+001
5.4976875000e+009 -9.341948e+000  1.466811e+002 -3.451133e+001  9.356451e+001  2.271535e+001  1.023073e+001 -5.449194e+000  8.587815e+001
5.4978125000e+009 -9.585224e+000  1.475531e+002 -3.480071e+001  8.787759e+001  2.275977e+001  1.019181e+001 -5.563547e+000  8.507652e+001
5.4979375000e+009 -9.569689e+000  1.458011e+002 -3.430873e+001  8.901987e+001  2.270020e+001  9.708007e+000 -5.398329e+000  8.354720e+001
5.4980625000e+009 -9.534781e+000  1.473183e+002 -3.435598e+001  8.979054e+001  2.273259e+001  9.632064e+000 -5.496325e+000  8.391505e+001
5.4981875000e+009 -9.386728e+000  1.477268e+002 -3.452769e+001  8.801183e+001  2.265520e+001  9.217977e+000 -5.505679e+000  8.346130e+001
5.4983125000e+009 -9.541111e+000  1.458044e+002 -3.482304e+001  9.135738e+001  2.268567e+001  9.149250e+000 -5.551473e+000  8.332961e+001
5.4984375000e+009 -9.503308e+000  1.478871e+002 -3.455244e+001  8.702266e+001  2.267439e+001  8.996250e+000 -5.582561e+000  8.289303e+001
5.4985625000e+009 -9.408701e+000  1.468362e+002 -3.440806e+001  8.911978e+001  2.270027e+001  9.045352e+000 -5.608262e+000  8.274326e+001
5.4986875000e+009 -9.834870e+000  1.444215e+002 -3.407900e+001  8.614967e+001  2.271336e+001  8.572542e+000 -5.439514e+000  8.135916e+001
5.4988125000e+009 -9.702709e+000  1.461630e+002 -3.432938e+001  8.605456e+001  2.271818e+001  8.670537e+000 -5.666695e+000  8.177702e+001
5.4989375000e+009 -9.567157e+000  1.449649e+002 -3.426095e+001  8.722311e+001  2.272934e+001  8.522023e+000 -5.557325e+000  8.190591e+001
5.4990625000e+009 -9.802971e+000  1.432390e+002 -3.486962e+001  8.804264e+001  2.275069e+001  8.333077e+000 -5.692397e+000  8.106779e+001
5.4991875000e+009 -9.814609e+000  1.444534e+002 -3.425842e+001  8.865594e+001  2.270824e+001  7.831829e+000 -5.664517e+000  8.080053e+001
5.4993125000e+009 -9.455132e+000  1.442476e+002 -3.454182e+001  9.038770e+001  2.268505e+001  8.141771e+000 -5.729756e+000  8.101350e+001
5.4994375000e+009 -9.605932e+000  1.426491e+002 -3.475274e+001  8.504642e+001  2.272013e+001  7.728718e+000 -5.763705e+000  7.948534e+001
5.4995625000e+009 -9.683631e+000  1.431900e+002 -3.444247e+001  8.620728e+001  2.271411e+001  7.519311e+000 -5.751308e+000  7.964285e+001
5.4996875000e+009 -9.647772e+000  1.433052e+002 -3.463264e+001  8.476094e+001  2.272284e+001  7.444703e+000 -5.911290e+000  7.882458e+001
5.4998125000e+009 -9.820099e+000  1.441487e+002 -3.455775e+001  8.628239e+001  2.265487e+001  6.709411e+000 -5.755863e+000  7.825010e+001
5.4999375000e+009 -9.937925e+000  1.436672e+002 -3.481887e+001  8.778748e+001  2.266309e+001  6.701095e+000 -5.885468e+000  7.881119e+001
5.5000625000e+009 -9.688441e+000  1.442198e+002 -3.445383e+001  8.967748e+001  2.268256e+001  6.764886e+000 -5.776201e+000  7.885400e+001
5.5001875000e+009 -9.894032e+000  1.409902e+002 -3.424755e+001  8.626788e+001  2.274635e+001  6.531405e+000 -5.767118e+000  7.716207e+001
5.5003125000e+009 -9.844686e+000  1.416062e+002 -3.481713e+001  9.049977e+001  2.272642e+001  6.382253e+000 -5.955699e+000  7.826794e+001
5.5004375000e+009 -9.755343e+000  1.441204e+002 -3.475616e+001  8.335826e+001  2.265988e+001  6.226898e+000 -5.887500e+000  7.590033e+001
5.5005625000e+009 -9.615511e+000  1.406685e+002 -3.435822e+001  8.394496e+001  2.273949e+001  6.667989e+000 -5.956615e+000  7.635297e+001
5.5006875000e+009 -9.921857e+000  1.407771e+002 -3.465773e+001  8.329649e+001  2.273096e+001  6.091431e+000 -6.041605e+000  7.646765e+001
5.5008125000e+009 -9.840473e+000  1.433927e+002 -3.452920e+001  8.935744e+001  2.268796e+001  5.897415e+000 -5.856761e+000  7.613925e+001
5.5009375000e+009 -9.906068e+000  1.397223e+002 -3.440499e+001  8.638218e+001  2.274380e+001  5.783332e+000 -5.985443e+000  7.573849e+001
5.5010625000e+009 -9.821994e+000  1.410771e+002 -3.501604e+001  8.366306e+001  2.269918e+001  5.548556e+000 -6.103022e+000  7.512129e+001
5.5011875000e+009 -9.966881e+000  1.412727e+002 -3.419729e+001  8.495835e+001  2.270558e+001  5.161207e+000 -6.044209e+000  7.459938e+001
5.5013125000e+009 -9.816997e+000  1.382792e+002 -3.464176e+001  8.220195e+001  2.278421e+001  5.538810e+000 -6.062863e+000  7.344468e+001
5.5014375000e+009 -1.013898e+001  1.398667e+002 -3.476571e+001  7.839492e+001  2.271117e+001  4.773654e+000 -6.313398e+000  7.317698e+001
5.5015625000e+009 -9.752398e+000  1.403536e+002 -3.549049e+001  8.740477e+001  2.271055e+001  5.047494e+000 -6.313307e+000  7.434441e+001
5.5016875000e+009 -9.831686e+000  1.393225e+002 -3.495107e+001  8.312206e+001  2.270082e+001  5.214812e+000 -6.238376e+000  7.353958e+001
5.5018125000e+009 -1.000008e+001  1.385645e+002 -3.495433e+001  8.234332e+001  2.277167e+001  4.484287e+000 -6.295057e+000  7.203027e+001
5.5019375000e+009 -9.957359e+000  1.401116e+002 -3.460662e+001  8.130427e+001  2.278282e+001  4.656040e+000 -6.021778e+000  7.117951e+001
5.5020625000e+009 -1.011553e+001  1.394392e+002 -3.452734e+001  7.596717e+001  2.278687e+001  4.332554e+000 -6.040668e+000  6.964585e+001
5.5021875000e+009 -9.951461e+000  1.388233e+002 -3.563699e+001  8.447118e+001  2.272205e+001  3.948647e+000 -6.384292e+000  7.194743e+001
5.5023125000e+009 -9.856464e+000  1.390553e+002 -3.530049e+001  8.069197e+001  2.273471e+001  3.959791e+000 -6.428352e+000  7.056387e+001
5.5024375000e+009 -1.020829e+001  1.388552e+002 -3.499740e+001  8.039169e+001  2.275275e+001  3.828407e+000 -6.265167e+000  7.020079e+001
5.5025625000e+009 -1.018090e+001  1.382689e+002 -3.459818e+001  8.069085e+001  2.266609e+001  3.058211e+000 -6.450408e+000  7.018409e+001
5.5026875000e+009 -9.817853e+000  1.405565e+002 -3.521591e+001  8.221783e+001  2.268269e+001  3.374882e+000 -6.416354e+000  6.995621e+001
5.5028125000e+009 -9.890476e+000  1.392790e+002 -3.506332e+001  8.270998e+001  2.275121e+001  3.477590e+000 -6.275364e+000  6.919020e+001
5.5029375000e+009 -1.024475e+001  1.382141e+002 -3.505991e+001  8.196383e+001  2.274386e+001  3.188490e+000 -6.287277e+000  6.889619e+001
5.5030625000e+009 -1.002330e+001  1.384871e+002 -3.454968e+001  8.200523e+001  2.272932e+001  2.997169e+000 -6.248466e+000  6.840158e+001
5.5031875000e+009 -1.015820e+001  1.368367e+002 -3.551567e+001  8.217535e+001  2.281433e+001  2.870748e+000 -6.431591e+000  6.815083e+001
5.5033125000e+009 -1.004591e+001  1.379082e+002 -3.480862e+001  7.804121e+001  2.281571e+001  3.075090e+000 -6.214959e+000  6.648338e+001
5.5034375000e+009 -1.031225e+001  1.408196e+002 -3.562304e+001  7.520814e+001  2.263758e+001  1.891315e+000 -6.707981e+000  6.675422e+001
5.5035625000e+009 -1.021167e+001  1.366451e+002 -3.480014e+001  8.144370e+001  2.277108e+001  2.193541e+000 -6.410541e+000  6.677962e+001
5.5036875000e+009 -1.034745e+001  1.370630e+002 -3.501356e+001  7.648834e+001  2.275894e+001  1.849274e+000 -6.539767e+000  6.565578e+001
5.5038125000e+009 -1.036294e+001  1.379304e+002 -3.542946e+001  8.084315e+001  2.271895e+001  1.649422e+000 -6.587024e+000  6.659843e+001
5.5039375000e+009 -1.025571e+001  1.349467e+002 -3.567797e+001  8.020776e+001  2.278249e+001  1.530403e+000 -6.571620e+000  6.580442e+001
5.5040625000e+009 -1.028469e+001  1.359447e+002 -3.560940e+001  7.853585e+001  2.274872e+001  1.016549e+000 -6.724982e+000  6.515018e+001
5.5041875000e+009 -1.050462e+001  1.382081e+002 -3.534741e+001  8.146819e+001  2.272684e+001  9.344905e-001 -6.561111e+000  6.509006e+001
5.5043125000e+009 -1.018400e+001  1.354038e+002 -3.550111e+001  8.018829e+001  2.273920e+001  1.303151e+000 -6.635972e+000  6.491961e+001
5.5044375000e+009 -1.030119e+001  1.336577e+002 -3.609701e+001  7.974854e+001  2.280076e+001  7.561523e-001 -6.747458e+000  6.432059e+001
5.5045625000e+009 -1.048246e+001  1.350563e+002 -3.454329e+001  8.006093e+001  2.278778e+001  5.245993e-001 -6.488498e+000  6.329366e+001
5.5046875000e+009 -1.062579e+001  1.359777e+002 -3.590885e+001  7.893596e+001  2.277998e+001  3.887642e-001 -6.682997e+000  6.316766e+001
5.5048125000e+009 -1.052682e+001  1.341845e+002 -3.500150e+001  7.607036e+001  2.278037e+001  4.550591e-002 -6.609780e+000  6.187185e+001
5.5049375000e+009 -1.070691e+001  1.354969e+002 -3.504770e+001  7.726398e+001  2.274872e+001 -7.753864e-001 -6.625053e+000  6.153369e+001
5.5050625000e+009 -1.022294e+001  1.330049e+002 -3.507067e+001  8.025753e+001  2.282634e+001  1.051689e+000 -6.429382e+000  6.250527e+001
5.5051875000e+009 -1.049143e+001  1.344536e+002 -3.556513e+001  7.747949e+001  2.277474e+001 -2.194796e-001 -6.678979e+000  6.139763e+001
5.5053125000e+009 -1.056174e+001  1.349238e+002 -3.576221e+001  7.317950e+001  2.273713e+001 -4.104358e-001 -6.780837e+000  6.027221e+001
5.5054375000e+009 -1.040727e+001  1.311976e+002 -3.502414e+001  7.919075e+001  2.286262e+001 -1.204485e-001 -6.535311e+000  6.079107e+001
5.5055625000e+009 -1.034479e+001  1.317146e+002 -3.554053e+001  7.721447e+001  2.281287e+001 -9.262107e-002 -6.553995e+000  6.089545e+001
5.5056875000e+009 -1.091311e+001  1.356961e+002 -3.536903e+001  7.454913e+001  2.274256e+001 -1.307845e+000 -6.709465e+000  5.956422e+001
5.5058125000e+009 -1.032309e+001  1.329953e+002 -3.569877e+001  7.666021e+001  2.269856e+001 -2.308087e-001 -6.685464e+000  6.033458e+001
5.5059375000e+009 -1.042448e+001  1.316901e+002 -3.539473e+001  7.964479e+001  2.281941e+001 -7.395788e-001 -6.570721e+000  5.999862e+001
5.5060625000e+009 -1.082695e+001  1.336829e+002 -3.533936e+001  7.625008e+001  2.276379e+001 -1.181965e+000 -6.560118e+000  5.889587e+001
5.5061875000e+009 -1.032478e+001  1.316312e+002 -3.592601e+001  7.593708e+001  2.271936e+001 -1.401465e+000 -6.799621e+000  5.890367e+001
5.5063125000e+009 -1.066818e+001  1.324905e+002 -3.592141e+001  7.822997e+001  2.280587e+001 -2.011191e+000 -6.776456e+000  5.848456e+001
5.5064375000e+009 -1.052068e+001  1.306792e+002 -3.554173e+001  7.482983e+001  2.282217e+001 -1.992524e+000 -6.711821e+000  5.729094e+001
5.5065625000e+009 -1.033237e+001  1.326209e+002 -3.614079e+001  7.299278e+001  2.278717e+001 -1.482358e+000 -6.723553e+000  5.688884e+001
5.5066875000e+009 -1.079145e+001  1.313307e+002 -3.566472e+001  7.320813e+001  2.282020e+001 -2.885470e+000 -6.738087e+000  5.621879e+001
5.5068125000e+009 -1.053260e+001  1.300580e+002 -3.611098e+001  7.495954e+001  2.281439e+001 -3.256559e+000 -6.926362e+000  5.596555e+001
5.5069375000e+009 -1.043695e+001  1.308236e+002 -3.584731e+001  7.125520e+001  2.283538e+001 -2.036673e+000 -6.734352e+000  5.565827e+001
5.5070625000e+009 -1.084590e+001  1.304058e+002 -3.581156e+001  7.380988e+001  2.269159e+001 -2.267323e+000 -6.658529e+000  5.637357e+001
5.5071875000e+009 -1.063175e+001  1.302499e+002 -3.566502e+001  7.684277e+001  2.284777e+001 -3.510425e+000 -6.687160e+000  5.528320e+001
5.5073125000e+009 -1.075526e+001  1.289184e+002 -3.560740e+001  7.743201e+001  2.295180e+001 -3.531566e+000 -6.633232e+000  5.445369e+001
5.5074375000e+009 -1.063979e+001  1.284721e+002 -3.664071e+001  7.658138e+001  2.287104e+001 -2.747649e+000 -6.798944e+000  5.563794e+001
5.5075625000e+009 -1.072519e+001  1.302770e+002 -3.609516e+001  7.545426e+001  2.281986e+001 -3.093059e+000 -6.671533e+000  5.483295e+001
5.5076875000e+009 -1.052056e+001  1.306581e+002 -3.562509e+001  6.776825e+001  2.275061e+001 -2.901011e+000 -6.679497e+000  5.319508e+001
5.5078125000e+009 -1.078749e+001  1.279088e+002 -3.527282e+001  7.247141e+001  2.296497e+001 -4.279645e+000 -6.605545e+000  5.227775e+001
5.5079375000e+009 -1.081367e+001  1.294352e+002 -3.585134e+001  7.672980e+001  2.287329e+001 -5.240913e+000 -6.817082e+000  5.280110e+001
5.5080625000e+009 -1.079758e+001  1.288760e+002 -3.577209e+001  6.667188e+001  2.293407e+001 -4.774226e+000 -6.787430e+000  5.080674e+001
5.5081875000e+009 -1.071359e+001  1.285487e+002 -3.594566e+001  7.325270e+001  2.278363e+001 -4.686949e+000 -6.777753e+000  5.267919e+001
5.5083125000e+009 -1.120566e+001  1.275710e+002 -3.536333e+001  7.446111e+001  2.286516e+001 -5.421062e+000 -6.601512e+000  5.180257e+001
5.5084375000e+009 -1.071389e+001  1.289802e+002 -3.566090e+001  7.144295e+001  2.290621e+001 -5.629526e+000 -6.714107e+000  5.038108e+001
5.5085625000e+009 -1.047802e+001  1.268967e+002 -3.630216e+001  7.284792e+001  2.281505e+001 -4.719759e+000 -6.753898e+000  5.195145e+001
5.5086875000e+009 -1.088914e+001  1.284166e+002 -3.577926e+001  7.036827e+001  2.287313e+001 -5.529402e+000 -6.695747e+000  5.019662e+001
5.5088125000e+009 -1.073451e+001  1.271448e+002 -3.579551e+001  7.150598e+001  2.278728e+001 -4.847903e+000 -6.652279e+000  5.088589e+001
5.5089375000e+009 -1.072312e+001  1.264951e+002 -3.602684e+001  7.386290e+001  2.300753e+001 -5.909799e+000 -6.620335e+000  4.963189e+001
5.5090625000e+009 -1.086861e+001  1.271196e+002 -3.650430e+001  7.257740e+001  2.296197e+001 -6.036791e+000 -6.751057e+000  4.973739e+001
5.5091875000e+009 -1.094036e+001  1.255214e+002 -3.633902e+001  7.271481e+001  2.294501e+001 -6.234072e+000 -6.705473e+000  4.960121e+001
5.5093125000e+009 -1.080719e+001  1.262614e+002 -3.597427e+001  7.155756e+001  2.284166e+001 -5.884974e+000 -6.653424e+000  4.940984e+001
5.5094375000e+009 -1.104089e+001  1.258900e+002 -3.593301e+001  7.123516e+001  2.292848e+001 -6.477900e+000 -6.641719e+000  4.867237e+001
5.5095625000e+009 -1.081822e+001  1.254666e+002 -3.603226e+001  7.156635e+001  2.294178e+001 -6.477460e+000 -6.628986e+000  4.838307e+001
5.5096875000e+009 -1.053225e+001  1.258951e+002 -3.682536e+001  6.806951e+001  2.278709e+001 -6.582944e+000 -6.841468e+000  4.830951e+001
5.5098125000e+009 -1.100055e+001  1.253406e+002 -3.666594e+001  7.337016e+001  2.297956e+001 -7.412978e+000 -6.715772e+000  4.808953e+001
5.5099375000e+009 -1.068615e+001  1.265376e+002 -3.641750e+001  6.338908e+001  2.275176e+001 -6.215522e+000 -6.751863e+000  4.726695e+001
5.5100625000e+009 -1.076809e+001  1.253046e+002 -3.627716e+001  6.898887e+001  2.301686e+001 -7.572742e+000 -6.640210e+000  4.639605e+001
5.5101875000e+009 -1.104854e+001  1.241518e+002 -3.637244e+001  7.299831e+001  2.284347e+001 -7.658444e+000 -6.681506e+000  4.772326e+001
5.5103125000e+009 -1.090957e+001  1.240023e+002 -3.620447e+001  6.688728e+001  2.302487e+001 -7.345030e+000 -6.582398e+000  4.571692e+001
5.5104375000e+009 -1.088425e+001  1.244563e+002 -3.602555e+001  6.864204e+001  2.292352e+001 -7.742944e+000 -6.604510e+000  4.607517e+001
5.5105625000e+009 -1.104154e+001  1.239317e+002 -3.658677e+001  6.897086e+001  2.305216e+001 -7.927107e+000 -6.612767e+000  4.558675e+001
5.5106875000e+009 -1.065747e+001  1.254824e+002 -3.632798e+001  6.407765e+001  2.272714e+001 -8.253953e+000 -6.748627e+000  4.536605e+001
5.5108125000e+009 -1.095422e+001  1.233535e+002 -3.558109e+001  6.847929e+001  2.296645e+001 -8.517785e+000 -6.491723e+000  4.497281e+001
5.5109375000e+009 -1.109540e+001  1.224163e+002 -3.589890e+001  7.015906e+001  2.297632e+001 -8.952821e+000 -6.534142e+000  4.500294e+001
5.5110625000e+009 -1.087286e+001  1.231379e+002 -3.695177e+001  6.471263e+001  2.295210e+001 -8.886515e+000 -6.768499e+000  4.452955e+001
5.5111875000e+009 -1.086816e+001  1.226991e+002 -3.653736e+001  6.944323e+001  2.304516e+001 -8.887577e+000 -6.538333e+000  4.424167e+001
5.5113125000e+009 -1.091261e+001  1.218804e+002 -3.721539e+001  7.152674e+001  2.304521e+001 -9.428543e+000 -6.638797e+000  4.474109e+001
5.5114375000e+009 -1.085703e+001  1.215480e+002 -3.730030e+001  6.868748e+001  2.293956e+001 -9.024945e+000 -6.661945e+000  4.485939e+001
5.5115625000e+009 -1.090861e+001  1.226651e+002 -3.669352e+001  6.559981e+001  2.304668e+001 -9.502085e+000 -6.594086e+000  4.305728e+001
5.5116875000e+009 -1.100097e+001  1.214987e+002 -3.667062e+001  6.802061e+001  2.301938e+001 -9.710257e+000 -6.576758e+000  4.328099e+001
5.5118125000e+009 -1.092113e+001  1.219385e+002 -3.634781e+001  6.638341e+001  2.295528e+001 -1.009011e+001 -6.524913e+000  4.280796e+001
5.5119375000e+009 -1.102108e+001  1.206424e+002 -3.634820e+001  6.946081e+001  2.301898e+001 -1.002282e+001 -6.453516e+000  4.324604e+001
5.5120625000e+009 -1.106507e+001  1.207217e+002 -3.605201e+001  6.718231e+001  2.307124e+001 -1.013968e+001 -6.392882e+000  4.230389e+001
5.5121875000e+009 -1.094385e+001  1.214572e+002 -3.636197e+001  6.338750e+001  2.303807e+001 -1.015312e+001 -6.494604e+000  4.143378e+001
5.5123125000e+009 -1.090224e+001  1.201446e+002 -3.725223e+001  6.545316e+001  2.312895e+001 -1.050911e+001 -6.533059e+000  4.165014e+001
5.5124375000e+009 -1.094661e+001  1.199092e+002 -3.710233e+001  6.757429e+001  2.307712e+001 -1.075226e+001 -6.586809e+000  4.224837e+001
5.5125625000e+009 -1.088211e+001  1.190490e+002 -3.735054e+001  6.831522e+001  2.306726e+001 -1.099023e+001 -6.529309e+000  4.198467e+001
5.5126875000e+009 -1.102481e+001  1.201927e+002 -3.636024e+001  6.367274e+001  2.310273e+001 -1.086016e+001 -6.419883e+000  4.079030e+001
5.5128125000e+009 -1.108657e+001  1.198936e+002 -3.594596e+001  6.331082e+001  2.319356e+001 -1.149624e+001 -6.336254e+000  3.968761e+001
5.5129375000e+009 -1.107577e+001  1.194376e+002 -3.625118e+001  6.514632e+001  2.303364e+001 -1.174913e+001 -6.397178e+000  4.051242e+001
5.5130625000e+009 -1.101314e+001  1.188991e+002 -3.698737e+001  6.540472e+001  2.307734e+001 -1.164057e+001 -6.444066e+000  4.090625e+001
5.5131875000e+009 -1.106183e+001  1.187994e+002 -3.631154e+001  6.482301e+001  2.300440e+001 -1.226911e+001 -6.416882e+000  3.994473e+001
5.5133125000e+009 -1.105302e+001  1.186586e+002 -3.666246e+001  6.210664e+001  2.313919e+001 -1.199942e+001 -6.429040e+000  3.956552e+001
5.5134375000e+009 -1.110841e+001  1.177868e+002 -3.600329e+001  6.795097e+001  2.318063e+001 -1.203845e+001 -6.253158e+000  3.991383e+001
5.5135625000e+009 -1.102693e+001  1.179842e+002 -3.757597e+001  6.212643e+001  2.321709e+001 -1.249593e+001 -6.555422e+000  3.943869e+001
5.5136875000e+009 -1.103364e+001  1.170778e+002 -3.716266e+001  6.512225e+001  2.309307e+001 -1.245526e+001 -6.472739e+000  3.983138e+001
5.5138125000e+009 -1.113200e+001  1.166457e+002 -3.679283e+001  6.834814e+001  2.315299e+001 -1.260843e+001 -6.359578e+000  3.968131e+001
5.5139375000e+009 -1.109468e+001  1.171719e+002 -3.671758e+001  6.304548e+001  2.307375e+001 -1.321746e+001 -6.443862e+000  3.855045e+001
5.5140625000e+009 -1.105064e+001  1.164059e+002 -3.668681e+001  6.467464e+001  2.311487e+001 -1.337759e+001 -6.422461e+000  3.874045e+001
5.5141875000e+009 -1.114141e+001  1.156173e+002 -3.659755e+001  6.721535e+001  2.314453e+001 -1.357280e+001 -6.341405e+000  3.872985e+001
5.5143125000e+009 -1.121554e+001  1.156350e+002 -3.656334e+001  6.475822e+001  2.317300e+001 -1.373999e+001 -6.353528e+000  3.798700e+001
5.5144375000e+009 -1.108528e+001  1.146876e+002 -3.761254e+001  6.606068e+001  2.320325e+001 -1.382609e+001 -6.429234e+000  3.880458e+001
5.5145625000e+009 -1.113851e+001  1.144329e+002 -3.724738e+001  6.734597e+001  2.314776e+001 -1.413744e+001 -6.348288e+000  3.843701e+001
5.5146875000e+009 -1.116025e+001  1.147898e+002 -3.693303e+001  6.541719e+001  2.323030e+001 -1.394114e+001 -6.397779e+000  3.792814e+001
5.5148125000e+009 -1.108718e+001  1.142870e+002 -3.744923e+001  6.438346e+001  2.318184e+001 -1.421222e+001 -6.441706e+000  3.796133e+001
5.5149375000e+009 -1.101615e+001  1.134217e+002 -3.787318e+001  6.704665e+001  2.316665e+001 -1.485627e+001 -6.443089e+000  3.819711e+001
5.5150625000e+009 -1.113186e+001  1.142230e+002 -3.732476e+001  6.108274e+001  2.329896e+001 -1.435951e+001 -6.491970e+000  3.660802e+001
5.5151875000e+009 -1.111229e+001  1.133646e+002 -3.762476e+001  6.553077e+001  2.322511e+001 -1.490940e+001 -6.378747e+000  3.744387e+001
5.5153125000e+009 -1.113547e+001  1.129408e+002 -3.727621e+001  6.509897e+001  2.319398e+001 -1.535847e+001 -6.405816e+000  3.671622e+001
5.5154375000e+009 -1.109837e+001  1.133832e+002 -3.721801e+001  6.147553e+001  2.320329e+001 -1.535029e+001 -6.413280e+000  3.617386e+001
5.5155625000e+009 -1.109025e+001  1.129150e+002 -3.760342e+001  6.047071e+001  2.321333e+001 -1.575762e+001 -6.442688e+000  3.617352e+001
5.5156875000e+009 -1.108541e+001  1.123444e+002 -3.776082e+001  6.286490e+001  2.320044e+001 -1.583490e+001 -6.406472e+000  3.630444e+001
5.5158125000e+009 -1.116894e+001  1.123888e+002 -3.709346e+001  6.129556e+001  2.325518e+001 -1.572222e+001 -6.418584e+000  3.548668e+001
5.5159375000e+009 -1.118834e+001  1.114247e+002 -3.713204e+001  6.060099e+001  2.322831e+001 -1.646268e+001 -6.394162e+000  3.507846e+001
5.5160625000e+009 -1.118419e+001  1.120005e+002 -3.710749e+001  6.010657e+001  2.320014e+001 -1.658805e+001 -6.351861e+000  3.514326e+001
5.5161875000e+009 -1.117745e+001  1.116975e+002 -3.709739e+001  6.222184e+001  2.326682e+001 -1.667086e+001 -6.317092e+000  3.477717e+001
5.5163125000e+009 -1.110129e+001  1.114960e+002 -3.761087e+001  6.031287e+001  2.326483e+001 -1.668142e+001 -6.408007e+000  3.493217e+001
5.5164375000e+009 -1.110418e+001  1.103338e+002 -3.774362e+001  5.912909e+001  2.326795e+001 -1.679540e+001 -6.397991e+000  3.473128e+001
5.5165625000e+009 -1.117060e+001  1.112199e+002 -3.760041e+001  6.076964e+001  2.326263e+001 -1.724918e+001 -6.386139e+000  3.485505e+001
5.5166875000e+009 -1.112965e+001  1.101976e+002 -3.803878e+001  6.365939e+001  2.324322e+001 -1.756191e+001 -6.376189e+000  3.527951e+001
5.5168125000e+009 -1.114908e+001  1.090616e+002 -3.724080e+001  6.226518e+001  2.326806e+001 -1.757733e+001 -6.276405e+000  3.477993e+001
5.5169375000e+009 -1.116003e+001  1.090824e+002 -3.744626e+001  6.109985e+001  2.328325e+001 -1.799260e+001 -6.384457e+000  3.411142e+001
5.5170625000e+009 -1.106719e+001  1.104383e+002 -3.775442e+001  5.699255e+001  2.328544e+001 -1.789588e+001 -6.420222e+000  3.409294e+001
5.5171875000e+009 -1.116432e+001  1.091686e+002 -3.763380e+001  6.218277e+001  2.328859e+001 -1.828883e+001 -6.297855e+000  3.430874e+001
5.5173125000e+009 -1.110824e+001  1.090556e+002 -3.792207e+001  5.794727e+001  2.330212e+001 -1.861147e+001 -6.483447e+000  3.305818e+001
5.5174375000e+009 -1.109287e+001  1.082791e+002 -3.808620e+001  6.219637e+001  2.330431e+001 -1.844571e+001 -6.387108e+000  3.457116e+001
5.5175625000e+009 -1.106778e+001  1.076191e+002 -3.770492e+001  6.214026e+001  2.331072e+001 -1.897461e+001 -6.338097e+000  3.378362e+001
5.5176875000e+009 -1.107786e+001  1.077996e+002 -3.825386e+001  5.882809e+001  2.333040e+001 -1.887601e+001 -6.424417e+000  3.365733e+001
5.5178125000e+009 -1.105560e+001  1.070903e+002 -3.775267e+001  6.278302e+001  2.332625e+001 -1.933753e+001 -6.274212e+000  3.358855e+001
5.5179375000e+009 -1.100908e+001  1.063150e+002 -3.826345e+001  6.634634e+001  2.336510e+001 -1.964328e+001 -6.289297e+000  3.375788e+001
5.5180625000e+009 -1.112687e+001  1.077429e+002 -3.808735e+001  5.949792e+001  2.334660e+001 -1.975699e+001 -6.402256e+000  3.271733e+001
5.5181875000e+009 -1.108941e+001  1.063417e+002 -3.790605e+001  6.134605e+001  2.338665e+001 -1.957648e+001 -6.222921e+000  3.305832e+001
5.5183125000e+009 -1.090840e+001  1.058884e+002 -3.780865e+001  6.080397e+001  2.335936e+001 -2.002863e+001 -6.256088e+000  3.284270e+001
5.5184375000e+009 -1.102036e+001  1.055692e+002 -3.771679e+001  6.208743e+001  2.337815e+001 -2.016273e+001 -6.278043e+000  3.263008e+001
5.5185625000e+009 -1.108719e+001  1.064976e+002 -3.823951e+001  5.803027e+001  2.340298e+001 -2.028881e+001 -6.346208e+000  3.198970e+001
5.5186875000e+009 -1.108552e+001  1.047886e+002 -3.794039e+001  6.161190e+001  2.339797e+001 -2.080960e+001 -6.275935e+000  3.214838e+001
5.5188125000e+009 -1.110671e+001  1.060115e+002 -3.878413e+001  5.929745e+001  2.334515e+001 -2.102352e+001 -6.422234e+000  3.282977e+001
5.5189375000e+009 -1.117955e+001  1.058131e+002 -3.808435e+001  5.855183e+001  2.337675e+001 -2.100118e+001 -6.320770e+000  3.225629e+001
5.5190625000e+009 -1.091634e+001  1.039614e+002 -3.753764e+001  6.099390e+001  2.346671e+001 -2.111186e+001 -6.132414e+000  3.150374e+001
5.5191875000e+009 -1.106376e+001  1.046757e+002 -3.853373e+001  5.813774e+001  2.340198e+001 -2.157154e+001 -6.379392e+000  3.182174e+001
5.5193125000e+009 -1.113674e+001  1.052415e+002 -3.828773e+001  6.172206e+001  2.342190e+001 -2.211813e+001 -6.352501e+000  3.141226e+001
5.5194375000e+009 -1.095055e+001  1.042120e+002 -3.789603e+001  5.628290e+001  2.344899e+001 -2.208610e+001 -6.304342e+000  3.041256e+001
5.5195625000e+009 -1.101632e+001  1.034807e+002 -3.821307e+001  6.300397e+001  2.339646e+001 -2.190485e+001 -6.215436e+000  3.228118e+001
5.5196875000e+009 -1.101736e+001  1.033521e+002 -3.821944e+001  6.031163e+001  2.344394e+001 -2.248400e+001 -6.264088e+000  3.122578e+001
5.5198125000e+009 -1.089816e+001  1.038258e+002 -3.789771e+001  5.647044e+001  2.348429e+001 -2.203938e+001 -6.176075e+000  3.048676e+001
5.5199375000e+009 -1.104163e+001  1.037099e+002 -3.837156e+001  5.660030e+001  2.343684e+001 -2.320561e+001 -6.498178e+000  3.019554e+001
5.5200625000e+009 -1.108845e+001  1.036358e+002 -3.750594e+001  5.710047e+001  2.348405e+001 -2.312980e+001 -6.271482e+000  2.926346e+001
5.5201875000e+009 -1.084011e+001  1.020265e+002 -3.834879e+001  6.024917e+001  2.351444e+001 -2.286626e+001 -6.147727e+000  3.104697e+001
5.5203125000e+009 -1.084060e+001  1.024599e+002 -3.813459e+001  5.784497e+001  2.346661e+001 -2.355142e+001 -6.375496e+000  3.036670e+001
5.5204375000e+009 -1.109893e+001  1.028553e+002 -3.808921e+001  5.771857e+001  2.351867e+001 -2.337651e+001 -6.245898e+000  3.015503e+001
5.5205625000e+009 -1.085945e+001  1.011072e+002 -3.880951e+001  5.963984e+001  2.349775e+001 -2.353288e+001 -6.252770e+000  3.105672e+001
5.5206875000e+009 -1.091423e+001  1.021340e+002 -3.834933e+001  5.510713e+001  2.353670e+001 -2.427011e+001 -6.385038e+000  2.928086e+001
5.5208125000e+009 -1.086029e+001  1.007369e+002 -3.878914e+001  6.160618e+001  2.351790e+001 -2.402145e+001 -6.231807e+000  3.107514e+001
5.5209375000e+009 -1.090983e+001  1.012990e+002 -3.853536e+001  5.670159e+001  2.354601e+001 -2.422007e+001 -6.276801e+000  2.951192e+001
5.5210625000e+009 -1.078500e+001  1.008016e+002 -3.860102e+001  5.625223e+001  2.358912e+001 -2.480651e+001 -6.345621e+000  2.905061e+001
5.5211875000e+009 -1.096539e+001  1.007016e+002 -3.833418e+001  5.840265e+001  2.355876e+001 -2.476817e+001 -6.143841e+000  2.942836e+001
5.5213125000e+009 -1.076689e+001  1.002668e+002 -3.836656e+001  5.702153e+001  2.352855e+001 -2.406639e+001 -6.048821e+000  3.075916e+001
5.5214375000e+009 -1.091763e+001  1.001999e+002 -3.848032e+001  5.841911e+001  2.354705e+001 -2.525902e+001 -6.288422e+000  2.972206e+001
5.5215625000e+009 -1.079755e+001  9.986767e+001 -3.852052e+001  5.596482e+001  2.357693e+001 -2.535910e+001 -6.231371e+000  2.914319e+001
5.5216875000e+009 -1.071085e+001  1.000542e+002 -3.859821e+001  5.796683e+001  2.357100e+001 -2.579090e+001 -6.287607e+000  2.926541e+001
5.5218125000e+009 -1.061218e+001  9.940964e+001 -3.932570e+001  5.509849e+001  2.361864e+001 -2.597711e+001 -6.332655e+000  2.884382e+001
5.5219375000e+009 -1.086914e+001  9.930367e+001 -3.893295e+001  6.222969e+001  2.356594e+001 -2.564665e+001 -6.182199e+000  3.051223e+001
5.5220625000e+009 -1.066750e+001  9.903115e+001 -3.836672e+001  5.589004e+001  2.361656e+001 -2.541739e+001 -6.055360e+000  2.933362e+001
5.5221875000e+009 -1.067160e+001  9.932748e+001 -3.938594e+001  5.771532e+001  2.365780e+001 -2.697694e+001 -6.309210e+000  2.857043e+001
5.5223125000e+009 -1.067947e+001  9.884530e+001 -3.867362e+001  5.085895e+001  2.360204e+001 -2.613049e+001 -6.309758e+000  2.891567e+001
5.5224375000e+009 -1.072208e+001  9.858981e+001 -3.937032e+001  5.705747e+001  2.367211e+001 -2.652809e+001 -6.230525e+000  2.902151e+001
5.5225625000e+009 -1.074858e+001  9.829538e+001 -3.856281e+001  5.379467e+001  2.374228e+001 -2.796346e+001 -6.410224e+000  2.603827e+001
5.5226875000e+009 -1.081029e+001  9.814376e+001 -3.843913e+001  5.480957e+001  2.359933e+001 -2.692653e+001 -6.221390e+000  2.888984e+001
5.5228125000e+009 -1.060642e+001  9.808105e+001 -3.913525e+001  5.639560e+001  2.366509e+001 -2.755794e+001 -6.323481e+000  2.861872e+001
5.5229375000e+009 -1.072534e+001  9.785111e+001 -3.895205e+001  5.033197e+001  2.361341e+001 -2.786826e+001 -6.458604e+000  2.821524e+001
5.5230625000e+009 -1.075776e+001  9.672305e+001 -3.915070e+001  5.696166e+001  2.361174e+001 -2.711065e+001 -6.095898e+000  2.962261e+001
5.5231875000e+009 -1.053965e+001  9.715509e+001 -3.929805e+001  5.683545e+001  2.360858e+001 -2.756559e+001 -6.213419e+000  2.989047e+001
5.5233125000e+009 -1.061811e+001  9.717726e+001 -3.891345e+001  5.573867e+001  2.365290e+001 -2.868345e+001 -6.364646e+000  2.821419e+001
5.5234375000e+009 -1.057062e+001  9.664155e+001 -3.878251e+001  5.862873e+001  2.377018e+001 -2.861469e+001 -6.189728e+000  2.711187e+001
5.5235625000e+009 -1.056795e+001  9.690883e+001 -3.871030e+001  5.491366e+001  2.366112e+001 -2.818739e+001 -6.174356e+000  2.844889e+001
5.5236875000e+009 -1.056986e+001  9.652532e+001 -3.926958e+001  4.583981e+001  2.376420e+001 -2.922189e+001 -6.520597e+000  2.625635e+001
5.5238125000e+009 -1.055502e+001  9.569060e+001 -3.923026e+001  5.612990e+001  2.364428e+001 -2.902874e+001 -6.277353e+000  2.887052e+001
5.5239375000e+009 -1.050873e+001  9.662490e+001 -3.923810e+001  5.484544e+001  2.362904e+001 -2.878887e+001 -6.239442e+000  2.936976e+001
5.5240625000e+009 -1.065909e+001  9.592689e+001 -3.870063e+001  5.016340e+001  2.367220e+001 -2.994633e+001 -6.462625e+000  2.701636e+001
5.5241875000e+009 -1.053510e+001  9.504662e+001 -3.945072e+001  5.198822e+001  2.370256e+001 -2.954350e+001 -6.299960e+000  2.824072e+001
5.5243125000e+009 -1.054048e+001  9.477354e+001 -3.910927e+001  5.501905e+001  2.360264e+001 -2.966868e+001 -6.249453e+000  2.912810e+001
5.5244375000e+009 -1.050998e+001  9.500505e+001 -3.939739e+001  5.307760e+001  2.369019e+001 -2.986443e+001 -6.316310e+000  2.832499e+001
5.5245625000e+009 -1.054696e+001  9.473399e+001 -3.909653e+001  5.709605e+001  2.369852e+001 -3.012416e+001 -6.226824e+000  2.843743e+001
5.5246875000e+009 -1.039032e+001  9.496252e+001 -3.961061e+001  5.051498e+001  2.371767e+001 -3.018232e+001 -6.353082e+000  2.825725e+001
5.5248125000e+009 -1.047843e+001  9.414795e+001 -3.947350e+001  5.503791e+001  2.375898e+001 -3.072670e+001 -6.256464e+000  2.735212e+001
5.5249375000e+009 -1.051645e+001  9.419710e+001 -3.939311e+001  5.185872e+001  2.375513e+001 -3.163114e+001 -6.462805e+000  2.641912e+001
5.5250625000e+009 -1.025888e+001  9.480492e+001 -3.883442e+001  4.863545e+001  2.364020e+001 -3.075062e+001 -6.394440e+000  2.877148e+001
5.5251875000e+009 -1.055690e+001  9.374554e+001 -3.942929e+001  5.223405e+001  2.385057e+001 -3.203603e+001 -6.330779e+000  2.535108e+001
5.5253125000e+009 -1.038902e+001  9.408574e+001 -3.939775e+001  5.062895e+001  2.381258e+001 -3.203965e+001 -6.465146e+000  2.596436e+001
5.5254375000e+009 -1.023937e+001  9.405399e+001 -3.999917e+001  5.572979e+001  2.368671e+001 -3.157035e+001 -6.303999e+000  2.865378e+001
5.5255625000e+009 -1.033681e+001  9.318386e+001 -3.991555e+001  5.568807e+001  2.378580e+001 -3.190797e+001 -6.324193e+000  2.740096e+001
5.5256875000e+009 -1.039849e+001  9.275164e+001 -3.992361e+001  5.966957e+001  2.382566e+001 -3.229062e+001 -6.223514e+000  2.669143e+001
5.5258125000e+009 -1.019799e+001  9.277564e+001 -4.044375e+001  5.572355e+001  2.376699e+001 -3.246534e+001 -6.398921e+000  2.778047e+001
5.5259375000e+009 -1.017836e+001  9.291872e+001 -3.995248e+001  5.174467e+001  2.376218e+001 -3.279155e+001 -6.513233e+000  2.696850e+001
5.5260625000e+009 -1.020058e+001  9.296030e+001 -3.978366e+001  5.346884e+001  2.375347e+001 -3.231655e+001 -6.345463e+000  2.726055e+001
5.5261875000e+009 -1.011594e+001  9.286927e+001 -3.984862e+001  5.440720e+001  2.367361e+001 -3.293352e+001 -6.500569e+000  2.777566e+001
5.5263125000e+009 -1.014413e+001  9.268486e+001 -3.984356e+001  5.236832e+001  2.388269e+001 -3.343030e+001 -6.470522e+000  2.501249e+001
5.5264375000e+009 -1.020432e+001  9.286502e+001 -3.988947e+001  5.557626e+001  2.385013e+001 -3.344094e+001 -6.363485e+000  2.540964e+001
5.5265625000e+009 -1.011608e+001  9.231235e+001 -4.010728e+001  5.459263e+001  2.380311e+001 -3.343759e+001 -6.405090e+000  2.669443e+001
5.5266875000e+009 -1.006923e+001  9.265299e+001 -3.979053e+001  5.041627e+001  2.377483e+001 -3.369893e+001 -6.404873e+000  2.559509e+001
5.5268125000e+009 -1.014147e+001  9.213206e+001 -3.951059e+001  5.276220e+001  2.392540e+001 -3.415483e+001 -6.504797e+000  2.357396e+001
5.5269375000e+009 -1.003390e+001  9.311944e+001 -3.959975e+001  4.866755e+001  2.369809e+001 -3.404185e+001 -6.686285e+000  2.635149e+001
5.5270625000e+009 -1.004035e+001  9.135841e+001 -3.999494e+001  5.348543e+001  2.386354e+001 -3.453434e+001 -6.451171e+000  2.481218e+001
5.5271875000e+009 -1.004490e+001  9.170148e+001 -4.013043e+001  5.433529e+001  2.381759e+001 -3.457930e+001 -6.477107e+000  2.546768e+001
5.5273125000e+009 -9.931849e+000  9.186769e+001 -4.005011e+001  4.985585e+001  2.375284e+001 -3.472342e+001 -6.623107e+000  2.581175e+001
5.5274375000e+009 -1.004169e+001  9.116053e+001 -3.951948e+001  5.494930e+001  2.383945e+001 -3.479913e+001 -6.422229e+000  2.465755e+001
5.5275625000e+009 -9.921471e+000  9.115179e+001 -4.049828e+001  5.243795e+001  2.381750e+001 -3.523843e+001 -6.600739e+000  2.513141e+001
5.5276875000e+009 -9.855440e+000  9.127713e+001 -4.029640e+001  5.666393e+001  2.371218e+001 -3.545888e+001 -6.645054e+000  2.609518e+001
5.5278125000e+009 -9.823461e+000  9.176042e+001 -4.036543e+001  4.861041e+001  2.390800e+001 -3.566992e+001 -6.721908e+000  2.291855e+001
5.5279375000e+009 -9.827089e+000  9.086723e+001 -4.066520e+001  5.303326e+001  2.384619e+001 -3.543957e+001 -6.545352e+000  2.513593e+001
5.5280625000e+009 -9.836225e+000  9.148058e+001 -4.009240e+001  5.163078e+001  2.364895e+001 -3.609685e+001 -6.877082e+000  2.617636e+001
5.5281875000e+009 -9.785832e+000  9.124195e+001 -4.048166e+001  5.020448e+001  2.385361e+001 -3.639193e+001 -6.815276e+000  2.373841e+001
5.5283125000e+009 -9.778686e+000  9.080273e+001 -4.093227e+001  5.354100e+001  2.378974e+001 -3.627596e+001 -6.652984e+000  2.526117e+001
5.5284375000e+009 -9.744792e+000  9.082668e+001 -4.032931e+001  5.337036e+001  2.378682e+001 -3.633711e+001 -6.611834e+000  2.498000e+001
5.5285625000e+009 -9.757497e+000  9.114582e+001 -4.011530e+001  4.785703e+001  2.386400e+001 -3.669148e+001 -6.616822e+000  2.272706e+001
5.5286875000e+009 -9.765237e+000  9.039285e+001 -3.999158e+001  5.418387e+001  2.387961e+001 -3.699078e+001 -6.520638e+000  2.250000e+001
5.5288125000e+009 -9.710115e+000  9.076608e+001 -4.033726e+001  5.074763e+001  2.387530e+001 -3.724912e+001 -6.763422e+000  2.239355e+001
5.5289375000e+009 -9.667898e+000  8.985751e+001 -4.072992e+001  5.229395e+001  2.381455e+001 -3.772841e+001 -6.888858e+000  2.363323e+001
5.5290625000e+009 -9.674352e+000  9.020290e+001 -4.028243e+001  5.017380e+001  2.383128e+001 -3.762235e+001 -6.674265e+000  2.288369e+001
5.5291875000e+009 -9.639812e+000  9.005822e+001 -4.045613e+001  5.333726e+001  2.375543e+001 -3.774997e+001 -6.886887e+000  2.448463e+001
5.5293125000e+009 -9.609614e+000  9.032602e+001 -4.045087e+001  4.377548e+001  2.386005e+001 -3.816218e+001 -6.922091e+000  2.146871e+001
5.5294375000e+009 -9.570325e+000  9.007474e+001 -4.089762e+001  4.868820e+001  2.376442e+001 -3.834346e+001 -6.969505e+000  2.360638e+001
5.5295625000e+009 -9.579966e+000  9.025989e+001 -3.977767e+001  4.840453e+001  2.381165e+001 -3.856613e+001 -6.901137e+000  2.164857e+001
5.5296875000e+009 -9.572948e+000  9.003385e+001 -4.014688e+001  4.889420e+001  2.378335e+001 -3.873259e+001 -6.900919e+000  2.173224e+001
5.5298125000e+009 -9.569643e+000  8.952260e+001 -4.008303e+001  5.596625e+001  2.379659e+001 -3.885079e+001 -6.925017e+000  2.288460e+001
5.5299375000e+009 -9.518580e+000  8.937938e+001 -4.049427e+001  5.478424e+001  2.386418e+001 -3.900463e+001 -6.769784e+000  2.165372e+001
5.5300625000e+009 -9.496465e+000  8.939973e+001 -4.095377e+001  5.163849e+001  2.374029e+001 -3.969958e+001 -7.224789e+000  2.266547e+001
5.5301875000e+009 -9.480535e+000  8.913855e+001 -4.074018e+001  5.353224e+001  2.384535e+001 -3.941174e+001 -6.830997e+000  2.193774e+001
5.5303125000e+009 -9.471226e+000  8.934605e+001 -4.054444e+001  4.909086e+001  2.372244e+001 -3.992627e+001 -7.139229e+000  2.245907e+001
5.5304375000e+009 -9.448997e+000  8.914275e+001 -4.077309e+001  5.070639e+001  2.376677e+001 -3.983054e+001 -7.017781e+000  2.214032e+001
5.5305625000e+009 -9.450705e+000  8.897437e+001 -4.050186e+001  5.320797e+001  2.385964e+001 -4.004360e+001 -6.856780e+000  2.050245e+001
5.5306875000e+009 -9.398106e+000  8.884837e+001 -4.085188e+001  5.225726e+001  2.376097e+001 -4.037530e+001 -7.098432e+000  2.160445e+001
5.5308125000e+009 -9.400599e+000  8.884340e+001 -4.104112e+001  5.272877e+001  2.377790e+001 -4.094312e+001 -7.129251e+000  2.144295e+001
5.5309375000e+009 -9.348912e+000  8.869891e+001 -4.174828e+001  5.014777e+001  2.375923e+001 -4.091170e+001 -7.193047e+000  2.151558e+001
5.5310625000e+009 -9.363329e+000  8.865723e+001 -4.074203e+001  5.178214e+001  2.380392e+001 -4.073322e+001 -6.903434e+000  2.092040e+001
5.5311875000e+009 -9.328188e+000  8.862257e+001 -4.087986e+001  4.933924e+001  2.373294e+001 -4.128194e+001 -7.248918e+000  2.168662e+001
5.5313125000e+009 -9.307995e+000  8.840192e+001 -4.176113e+001  4.998670e+001  2.378343e+001 -4.150082e+001 -7.219702e+000  2.109766e+001
5.5314375000e+009 -9.319350e+000  8.850523e+001 -4.065783e+001  5.063382e+001  2.378597e+001 -4.147880e+001 -6.953814e+000  1.989405e+001
5.5315625000e+009 -9.280515e+000  8.829777e+001 -4.090242e+001  5.021100e+001  2.375376e+001 -4.181490e+001 -7.127862e+000  2.047145e+001
5.5316875000e+009 -9.288586e+000  8.811676e+001 -4.111563e+001  5.613332e+001  2.374618e+001 -4.212538e+001 -7.230485e+000  2.039013e+001
5.5318125000e+009 -9.252196e+000  8.806290e+001 -4.104133e+001  5.220995e+001  2.374326e+001 -4.220962e+001 -7.106187e+000  1.974422e+001
5.5319375000e+009 -9.214465e+000  8.814410e+001 -4.098349e+001  4.639613e+001  2.374769e+001 -4.232874e+001 -7.467483e+000  2.073200e+001
5.5320625000e+009 -9.212870e+000  8.809456e+001 -4.112702e+001  4.580381e+001  2.374897e+001 -4.270609e+001 -7.439066e+000  2.017733e+001
5.5321875000e+009 -9.193258e+000  8.777525e+001 -4.138730e+001  5.286834e+001  2.376679e+001 -4.268420e+001 -7.076185e+000  1.978990e+001
5.5323125000e+009 -9.186459e+000  8.781947e+001 -4.177019e+001  4.836656e+001  2.371152e+001 -4.307401e+001 -7.367972e+000  2.059244e+001
5.5324375000e+009 -9.191465e+000  8.783864e+001 -4.101748e+001  5.166814e+001  2.372397e+001 -4.323652e+001 -7.375485e+000  1.970402e+001
5.5325625000e+009 -9.161370e+000  8.756521e+001 -4.114594e+001  4.796204e+001  2.373855e+001 -4.343452e+001 -7.213236e+000  1.909175e+001
5.5326875000e+009 -9.147390e+000  8.737273e+001 -4.142500e+001  5.157887e+001  2.370849e+001 -4.374120e+001 -7.353167e+000  2.042104e+001
5.5328125000e+009 -9.126040e+000  8.714954e+001 -4.123753e+001  5.366688e+001  2.369888e+001 -4.405317e+001 -7.471931e+000  2.021154e+001
5.5329375000e+009 -9.130413e+000  8.740744e+001 -4.104192e+001  5.090234e+001  2.372658e+001 -4.423335e+001 -7.344345e+000  1.771566e+001
5.5330625000e+009 -9.116261e+000  8.737764e+001 -4.111138e+001  4.983709e+001  2.370563e+001 -4.446682e+001 -7.465774e+000  1.924386e+001
5.5331875000e+009 -9.088569e+000  8.733330e+001 -4.106313e+001  4.786106e+001  2.369782e+001 -4.456681e+001 -7.499468e+000  1.902584e+001
5.5333125000e+009 -9.073998e+000  8.709623e+001 -4.161554e+001  4.914387e+001  2.365533e+001 -4.490689e+001 -7.500285e+000  1.865341e+001
5.5334375000e+009 -9.035098e+000  8.699744e+001 -4.089150e+001  4.732114e+001  2.368343e+001 -4.494026e+001 -7.599887e+000  1.873647e+001
5.5335625000e+009 -9.064450e+000  8.702895e+001 -4.119605e+001  5.018057e+001  2.366688e+001 -4.506997e+001 -7.570753e+000  1.869039e+001
5.5336875000e+009 -9.039304e+000  8.702878e+001 -4.094118e+001  5.035112e+001  2.365353e+001 -4.542509e+001 -7.465206e+000  1.792321e+001
5.5338125000e+009 -9.003428e+000  8.680049e+001 -4.156384e+001  5.054648e+001  2.365147e+001 -4.532383e+001 -7.731455e+000  1.909079e+001
5.5339375000e+009 -9.008872e+000  8.661137e+001 -4.208006e+001  5.077237e+001  2.364827e+001 -4.556454e+001 -7.807720e+000  1.971729e+001
5.5340625000e+009 -8.968699e+000  8.666447e+001 -4.184706e+001  5.075277e+001  2.363212e+001 -4.584970e+001 -7.654332e+000  1.834534e+001
5.5341875000e+009 -8.978455e+000  8.662167e+001 -4.142421e+001  5.336860e+001  2.363287e+001 -4.592786e+001 -7.772407e+000  1.838041e+001
5.5343125000e+009 -8.972916e+000  8.656249e+001 -4.184818e+001  4.980429e+001  2.364060e+001 -4.648878e+001 -7.832874e+000  1.874729e+001
5.5344375000e+009 -8.973332e+000  8.645045e+001 -4.137009e+001  5.131763e+001  2.363110e+001 -4.632355e+001 -7.815196e+000  1.786212e+001
5.5345625000e+009 -8.972737e+000  8.625243e+001 -4.207372e+001  5.457954e+001  2.357782e+001 -4.690741e+001 -7.742145e+000  1.808135e+001
5.5346875000e+009 -8.954710e+000  8.620959e+001 -4.185929e+001  4.955029e+001  2.357439e+001 -4.691898e+001 -7.988783e+000  1.793479e+001
5.5348125000e+009 -8.907866e+000  8.628803e+001 -4.162296e+001  5.057613e+001  2.359228e+001 -4.702848e+001 -7.692525e+000  1.763745e+001
5.5349375000e+009 -8.922897e+000  8.622438e+001 -4.139631e+001  5.195295e+001  2.355686e+001 -4.773315e+001 -7.691065e+000  1.718903e+001
5.5350625000e+009 -8.934841e+000  8.597876e+001 -4.185918e+001  5.236742e+001  2.358454e+001 -4.766827e+001 -7.938261e+000  1.749450e+001
5.5351875000e+009 -8.891919e+000  8.607050e+001 -4.148278e+001  5.073929e+001  2.355106e+001 -4.769905e+001 -7.945014e+000  1.700447e+001
5.5353125000e+009 -8.850286e+000  8.598662e+001 -4.265124e+001  4.930890e+001  2.347152e+001 -4.823346e+001 -8.043447e+000  1.702056e+001
5.5354375000e+009 -8.866647e+000  8.584733e+001 -4.253314e+001  5.026469e+001  2.351886e+001 -4.836148e+001 -8.154857e+000  1.673084e+001
5.5355625000e+009 -8.849010e+000  8.587479e+001 -4.190560e+001  5.173808e+001  2.353840e+001 -4.842313e+001 -7.868884e+000  1.665305e+001
5.5356875000e+009 -8.874270e+000  8.579017e+001 -4.205190e+001  4.816925e+001  2.345950e+001 -4.881486e+001 -8.058876e+000  1.618496e+001
5.5358125000e+009 -8.858382e+000  8.571268e+001 -4.166851e+001  4.875942e+001  2.354695e+001 -4.893814e+001 -8.114751e+000  1.641393e+001
5.5359375000e+009 -8.834006e+000  8.563544e+001 -4.175267e+001  5.184614e+001  2.347445e+001 -4.888673e+001 -8.052640e+000  1.632590e+001
5.5360625000e+009 -8.844851e+000  8.559959e+001 -4.188637e+001  4.726234e+001  2.348671e+001 -4.884582e+001 -8.339026e+000  1.578956e+001
5.5361875000e+009 -8.857518e+000  8.557928e+001 -4.148750e+001  5.069990e+001  2.344958e+001 -4.919857e+001 -8.255022e+000  1.590126e+001
5.5363125000e+009 -8.811218e+000  8.525236e+001 -4.207061e+001  5.015045e+001  2.342845e+001 -5.002097e+001 -8.122439e+000  1.570110e+001
5.5364375000e+009 -8.768630e+000  8.521442e+001 -4.235556e+001  5.130264e+001  2.341063e+001 -4.993204e+001 -8.301454e+000  1.534571e+001
5.5365625000e+009 -8.789852e+000  8.531856e+001 -4.187536e+001  4.831863e+001  2.347388e+001 -4.989400e+001 -8.371876e+000  1.537279e+001
5.5366875000e+009 -8.771386e+000  8.542129e+001 -4.228646e+001  4.821338e+001  2.337471e+001 -5.006662e+001 -8.376568e+000  1.540937e+001
5.5368125000e+009 -8.742995e+000  8.521623e+001 -4.201537e+001  4.897620e+001  2.342635e+001 -5.016563e+001 -8.308010e+000  1.526084e+001
5.5369375000e+009 -8.768435e+000  8.519017e+001 -4.221252e+001  4.630360e+001  2.335912e+001 -5.025414e+001 -8.486641e+000  1.470174e+001
5.5370625000e+009 -8.756937e+000  8.502294e+001 -4.217631e+001  5.013816e+001  2.334673e+001 -5.101087e+001 -8.341122e+000  1.491942e+001
5.5371875000e+009 -8.746456e+000  8.524390e+001 -4.191750e+001  4.924078e+001  2.340895e+001 -5.159444e+001 -8.388223e+000  1.458271e+001
5.5373125000e+009 -8.738267e+000  8.477179e+001 -4.235428e+001  5.165982e+001  2.337293e+001 -5.093768e+001 -8.451113e+000  1.481659e+001
5.5374375000e+009 -8.734612e+000  8.497511e+001 -4.184891e+001  4.702498e+001  2.334813e+001 -5.183399e+001 -8.384359e+000  1.440236e+001
5.5375625000e+009 -8.715260e+000  8.505473e+001 -4.197668e+001  5.037655e+001  2.330666e+001 -5.138101e+001 -8.436801e+000  1.422831e+001
5.5376875000e+009 -8.754898e+000  8.468156e+001 -4.187606e+001  5.504990e+001  2.325903e+001 -5.146554e+001 -8.524977e+000  1.391188e+001
5.5378125000e+009 -8.677338e+000  8.489539e+001 -4.183156e+001  4.998729e+001  2.333274e+001 -5.162045e+001 -8.492080e+000  1.397726e+001
5.5379375000e+009 -8.653753e+000  8.488009e+001 -4.206274e+001  5.206530e+001  2.329679e+001 -5.203778e+001 -8.542822e+000  1.342299e+001
5.5380625000e+009 -8.669627e+000  8.501849e+001 -4.184032e+001  4.906507e+001  2.332339e+001 -5.211138e+001 -8.601374e+000  1.331635e+001
5.5381875000e+009 -8.636735e+000  8.442184e+001 -4.302401e+001  5.103525e+001  2.327653e+001 -5.218493e+001 -8.601501e+000  1.354384e+001
5.5383125000e+009 -8.616526e+000  8.471275e+001 -4.294640e+001  4.589003e+001  2.327488e+001 -5.290857e+001 -8.729283e+000  1.297341e+001
5.5384375000e+009 -8.610985e+000  8.497295e+001 -4.245588e+001  4.633341e+001  2.324855e+001 -5.293024e+001 -8.755589e+000  1.249753e+001
5.5385625000e+009 -8.590602e+000  8.474831e+001 -4.280790e+001  4.928516e+001  2.325649e+001 -5.280933e+001 -8.690568e+000  1.272538e+001
5.5386875000e+009 -8.597244e+000  8.487716e+001 -4.199414e+001  4.987350e+001  2.322014e+001 -5.318256e+001 -8.693905e+000  1.210572e+001
5.5388125000e+009 -8.603494e+000  8.469460e+001 -4.247633e+001  5.449411e+001  2.324618e+001 -5.350816e+001 -8.652061e+000  1.227341e+001
5.5389375000e+009 -8.579959e+000  8.491399e+001 -4.205878e+001  5.120063e+001  2.318454e+001 -5.319019e+001 -8.669135e+000  1.143208e+001
5.5390625000e+009 -8.563566e+000  8.465079e+001 -4.318105e+001  4.889208e+001  2.318079e+001 -5.407348e+001 -8.736833e+000  1.187130e+001
5.5391875000e+009 -8.581544e+000  8.488320e+001 -4.230124e+001  4.856401e+001  2.320411e+001 -5.269839e+001 -8.806731e+000  1.088711e+001
5.5393125000e+009 -8.557689e+000  8.498817e+001 -4.204707e+001  4.778927e+001  2.323348e+001 -5.392247e+001 -8.806940e+000  1.076295e+001
5.5394375000e+009 -8.556510e+000  8.497884e+001 -4.234514e+001  4.938069e+001  2.319234e+001 -5.376431e+001 -8.806571e+000  1.034754e+001
5.5395625000e+009 -8.548669e+000  8.457001e+001 -4.294802e+001  5.088308e+001  2.314821e+001 -5.429679e+001 -8.862537e+000  1.014134e+001
5.5396875000e+009 -8.539106e+000  8.509274e+001 -4.276117e+001  4.740079e+001  2.314271e+001 -5.471664e+001 -8.847202e+000  1.040365e+001
5.5398125000e+009 -8.551954e+000  8.482968e+001 -4.278409e+001  5.240750e+001  2.312001e+001 -5.405046e+001 -8.868610e+000  1.003023e+001
5.5399375000e+009 -8.515096e+000  8.507770e+001 -4.203755e+001  4.881075e+001  2.309182e+001 -5.528495e+001 -8.952211e+000  8.879104e+000
5.5400625000e+009 -8.510880e+000  8.519032e+001 -4.187970e+001  4.852031e+001  2.316027e+001 -5.527013e+001 -8.882311e+000  9.081159e+000
5.5401875000e+009 -8.506013e+000  8.485177e+001 -4.266373e+001  4.958562e+001  2.317691e+001 -5.539080e+001 -8.954614e+000  8.869005e+000
5.5403125000e+009 -8.490782e+000  8.471855e+001 -4.290385e+001  4.674371e+001  2.305622e+001 -5.534866e+001 -9.022867e+000  8.830403e+000
5.5404375000e+009 -8.493917e+000  8.499248e+001 -4.273187e+001  4.739156e+001  2.313399e+001 -5.542091e+001 -8.990458e+000  8.694463e+000
5.5405625000e+009 -8.471217e+000  8.499599e+001 -4.278284e+001  5.039962e+001  2.306789e+001 -5.540456e+001 -8.944370e+000  8.623969e+000
5.5406875000e+009 -8.461691e+000  8.475905e+001 -4.238144e+001  4.378112e+001  2.305656e+001 -5.586203e+001 -9.087096e+000  8.137485e+000
5.5408125000e+009 -8.482901e+000  8.505441e+001 -4.229086e+001  4.795287e+001  2.309111e+001 -5.675588e+001 -9.123464e+000  7.592667e+000
5.5409375000e+009 -8.455439e+000  8.501286e+001 -4.229224e+001  4.286581e+001  2.296570e+001 -5.669334e+001 -9.239060e+000  7.103391e+000
5.5410625000e+009 -8.432741e+000  8.482850e+001 -4.250464e+001  4.384245e+001  2.307076e+001 -5.663923e+001 -9.133759e+000  6.688945e+000
5.5411875000e+009 -8.456510e+000  8.502583e+001 -4.268211e+001  4.651930e+001  2.306416e+001 -5.671077e+001 -9.099691e+000  6.464404e+000
5.5413125000e+009 -8.432160e+000  8.504857e+001 -4.296834e+001  4.080547e+001  2.301949e+001 -5.730011e+001 -9.274555e+000  6.160913e+000
5.5414375000e+009 -8.414122e+000  8.498384e+001 -4.273547e+001  4.542867e+001  2.294744e+001 -5.710509e+001 -9.174932e+000  6.023317e+000
5.5415625000e+009 -8.443583e+000  8.506889e+001 -4.202045e+001  5.137868e+001  2.302270e+001 -5.754929e+001 -9.151887e+000  5.838281e+000
5.5416875000e+009 -8.417800e+000  8.491682e+001 -4.274549e+001  4.572045e+001  2.293166e+001 -5.755099e+001 -9.191403e+000  6.345482e+000
5.5418125000e+009 -8.426662e+000  8.498775e+001 -4.241093e+001  4.636237e+001  2.289329e+001 -5.763263e+001 -9.233090e+000  5.115332e+000
5.5419375000e+009 -8.424938e+000  8.489157e+001 -4.189207e+001  5.014473e+001  2.299596e+001 -5.844428e+001 -9.274956e+000  4.650983e+000
5.5420625000e+009 -8.414778e+000  8.501265e+001 -4.228675e+001  4.479866e+001  2.285109e+001 -5.796733e+001 -9.267652e+000  5.572651e+000
5.5421875000e+009 -8.386030e+000  8.470999e+001 -4.286508e+001  4.805441e+001  2.281320e+001 -5.791166e+001 -9.288660e+000  5.585899e+000
5.5423125000e+009 -8.418921e+000  8.487981e+001 -4.304538e+001  4.608486e+001  2.284566e+001 -5.799616e+001 -9.275146e+000  5.406325e+000
5.5424375000e+009 -8.400121e+000  8.488664e+001 -4.239223e+001  4.418278e+001  2.292302e+001 -5.850101e+001 -9.319316e+000  4.221187e+000
5.5425625000e+009 -8.372761e+000  8.487060e+001 -4.276588e+001  4.704480e+001  2.277337e+001 -5.831190e+001 -9.253936e+000  4.804967e+000
5.5426875000e+009 -8.383189e+000  8.487634e+001 -4.284271e+001  4.747641e+001  2.289391e+001 -5.930194e+001 -9.388488e+000  3.544036e+000
5.5428125000e+009 -8.382699e+000  8.492989e+001 -4.304776e+001  4.818080e+001  2.284919e+001 -5.904553e+001 -9.300385e+000  3.758546e+000
5.5429375000e+009 -8.387935e+000  8.496715e+001 -4.269494e+001  4.449804e+001  2.280393e+001 -5.870930e+001 -9.322630e+000  3.434488e+000
5.5430625000e+009 -8.379810e+000  8.491044e+001 -4.305421e+001  4.785625e+001  2.285543e+001 -5.905339e+001 -9.337652e+000  3.485343e+000
5.5431875000e+009 -8.358650e+000  8.478883e+001 -4.377145e+001  4.486796e+001  2.276241e+001 -5.912400e+001 -9.341758e+000  4.232009e+000
5.5433125000e+009 -8.354060e+000  8.490247e+001 -4.300538e+001  4.480539e+001  2.278605e+001 -5.920708e+001 -9.302037e+000  3.088284e+000
5.5434375000e+009 -8.360776e+000  8.482693e+001 -4.305464e+001  4.724289e+001  2.278783e+001 -5.957558e+001 -9.458137e+000  2.637283e+000
5.5435625000e+009 -8.371692e+000  8.497591e+001 -4.245538e+001  4.550184e+001  2.282844e+001 -6.017370e+001 -9.519597e+000  1.303872e+000
5.5436875000e+009 -8.331831e+000  8.480455e+001 -4.259568e+001  4.664032e+001  2.277425e+001 -6.007111e+001 -9.497133e+000  2.425743e+000
5.5438125000e+009 -8.335914e+000  8.482187e+001 -4.346437e+001  4.394618e+001  2.283069e+001 -5.999392e+001 -9.434976e+000  1.339381e+000
5.5439375000e+009 -8.340696e+000  8.475715e+001 -4.284889e+001  4.718116e+001  2.275875e+001 -6.042130e+001 -9.400184e+000  1.374810e+000
5.5440625000e+009 -8.331628e+000  8.493686e+001 -4.269988e+001  4.528404e+001  2.276705e+001 -6.011978e+001 -9.336350e+000  1.193925e+000
5.5441875000e+009 -8.333214e+000  8.488037e+001 -4.294167e+001  4.513187e+001  2.280022e+001 -6.067859e+001 -9.431511e+000  9.782357e-001
5.5443125000e+009 -8.333821e+000  8.475551e+001 -4.239874e+001  4.727915e+001  2.272432e+001 -6.090300e+001 -9.438767e+000  6.601472e-001
5.5444375000e+009 -8.322549e+000  8.486588e+001 -4.289494e+001  4.260398e+001  2.271219e+001 -6.075322e+001 -9.473538e+000  8.928956e-001
5.5445625000e+009 -8.314785e+000  8.480515e+001 -4.346135e+001  4.733996e+001  2.271816e+001 -6.102871e+001 -9.441509e+000  5.593581e-001
5.5446875000e+009 -8.333997e+000  8.483224e+001 -4.235191e+001  4.528360e+001  2.268508e+001 -6.133138e+001 -9.551607e+000  2.168970e-001
5.5448125000e+009 -8.330177e+000  8.488329e+001 -4.205955e+001  4.695546e+001  2.257110e+001 -6.133041e+001 -9.493752e+000  1.325099e+000
5.5449375000e+009 -8.325476e+000  8.485046e+001 -4.285061e+001  4.698400e+001  2.269044e+001 -6.120669e+001 -9.457398e+000  4.650055e-001
5.5450625000e+009 -8.306455e+000  8.477269e+001 -4.239220e+001  4.200375e+001  2.270731e+001 -6.184415e+001 -9.563795e+000 -1.067327e+000
5.5451875000e+009 -8.315340e+000  8.487558e+001 -4.256465e+001  4.781551e+001  2.257806e+001 -6.171911e+001 -9.415475e+000  1.750295e-001
5.5453125000e+009 -8.308366e+000  8.478468e+001 -4.221883e+001  4.948422e+001  2.264574e+001 -6.188921e+001 -9.527023e+000 -6.821272e-001
5.5454375000e+009 -8.319910e+000  8.474612e+001 -4.258794e+001  4.672824e+001  2.266708e+001 -6.201418e+001 -9.617889e+000 -1.111898e+000
5.5455625000e+009 -8.311308e+000  8.475720e+001 -4.305055e+001  4.391264e+001  2.257489e+001 -6.259173e+001 -9.684933e+000 -7.955572e-001
5.5456875000e+009 -8.288751e+000  8.476778e+001 -4.269020e+001  4.151074e+001  2.264193e+001 -6.229280e+001 -9.556210e+000 -1.737018e+000
5.5458125000e+009 -8.296625e+000  8.470991e+001 -4.301461e+001  4.653630e+001  2.263494e+001 -6.231702e+001 -9.521721e+000 -2.042270e+000
5.5459375000e+009 -8.290136e+000  8.483057e+001 -4.303994e+001  4.438731e+001  2.256778e+001 -6.272402e+001 -9.547817e+000 -1.479594e+000
5.5460625000e+009 -8.297070e+000  8.480803e+001 -4.259964e+001  4.949133e+001  2.259981e+001 -6.292205e+001 -9.493742e+000 -1.972323e+000
5.5461875000e+009 -8.297444e+000  8.466084e+001 -4.217390e+001  4.543434e+001  2.256945e+001 -6.263078e+001 -9.429151e+000 -1.251292e+000
5.5463125000e+009 -8.281513e+000  8.470799e+001 -4.301112e+001  4.097145e+001  2.248371e+001 -6.344138e+001 -9.740431e+000 -7.621102e-001
