# Hz  S  DB  R  50
! ADVANTEST Corporation R3860A
! Date: Wed Apr 11 19:53:17 2007
5.3463125000e+009 -5.149278e+000  3.792601e+000 -3.583140e+001 -2.775604e+001  2.743172e+001 -1.731059e+002 -5.298586e+000  6.553354e+001
5.3464375000e+009 -5.124812e+000  3.460229e+000 -3.591698e+001 -2.589531e+001  2.748929e+001 -1.734706e+002 -5.362719e+000  6.564766e+001
5.3465625000e+009 -5.053614e+000  3.580408e+000 -3.625750e+001 -2.981195e+001  2.746852e+001 -1.735976e+002 -5.416370e+000  6.552651e+001
5.3466875000e+009 -5.015646e+000  3.532355e+000 -3.616550e+001 -3.161138e+001  2.747591e+001 -1.739845e+002 -5.392064e+000  6.568141e+001
5.3468125000e+009 -5.008863e+000  3.222010e+000 -3.609361e+001 -2.881684e+001  2.747663e+001 -1.744241e+002 -5.488628e+000  6.561253e+001
5.3469375000e+009 -4.980647e+000  3.380713e+000 -3.570956e+001 -3.354258e+001  2.750998e+001 -1.745542e+002 -5.490459e+000  6.600914e+001
5.3470625000e+009 -4.916211e+000  2.831275e+000 -3.604524e+001 -2.834167e+001  2.753135e+001 -1.751857e+002 -5.608407e+000  6.579914e+001
5.3471875000e+009 -4.878189e+000  2.844787e+000 -3.599574e+001 -3.268385e+001  2.745008e+001 -1.749424e+002 -5.592254e+000  6.579565e+001
5.3473125000e+009 -4.852907e+000  2.578954e+000 -3.592939e+001 -3.014471e+001  2.757355e+001 -1.759316e+002 -5.685664e+000  6.607578e+001
5.3474375000e+009 -4.794547e+000  2.734241e+000 -3.606717e+001 -3.483079e+001  2.744312e+001 -1.761498e+002 -5.631914e+000  6.590248e+001
5.3475625000e+009 -4.787502e+000  2.420699e+000 -3.557998e+001 -3.303831e+001  2.737211e+001 -1.762642e+002 -5.703107e+000  6.613442e+001
5.3476875000e+009 -4.764616e+000  2.053769e+000 -3.545695e+001 -2.934607e+001  2.742067e+001 -1.770768e+002 -5.800941e+000  6.638204e+001
5.3478125000e+009 -4.694294e+000  2.040907e+000 -3.598114e+001 -3.364568e+001  2.749507e+001 -1.767006e+002 -5.816290e+000  6.631600e+001
5.3479375000e+009 -4.648691e+000  1.855728e+000 -3.592711e+001 -3.194253e+001  2.738671e+001 -1.769634e+002 -5.872152e+000  6.588036e+001
5.3480625000e+009 -4.626760e+000  1.813423e+000 -3.591695e+001 -3.478385e+001  2.742039e+001 -1.773584e+002 -5.829557e+000  6.625812e+001
5.3481875000e+009 -4.617712e+000  1.455332e+000 -3.543804e+001 -3.154397e+001  2.750897e+001 -1.778898e+002 -5.983289e+000  6.666843e+001
5.3483125000e+009 -4.581890e+000  1.312379e+000 -3.568506e+001 -3.115318e+001  2.749742e+001 -1.776523e+002 -5.999124e+000  6.657980e+001
5.3484375000e+009 -4.509910e+000  1.430640e+000 -3.597231e+001 -3.590950e+001  2.743178e+001 -1.783056e+002 -5.969842e+000  6.631717e+001
5.3485625000e+009 -4.466419e+000  9.526429e-001 -3.583855e+001 -3.208689e+001  2.743183e+001 -1.786825e+002 -6.053102e+000  6.643431e+001
5.3486875000e+009 -4.468039e+000  1.149263e+000 -3.521040e+001 -3.471059e+001  2.733066e+001 -1.793398e+002 -6.004473e+000  6.660601e+001
5.3488125000e+009 -4.380093e+000  1.028537e+000 -3.596375e+001 -3.776705e+001  2.741539e+001 -1.788618e+002 -6.065013e+000  6.637886e+001
5.3489375000e+009 -4.372904e+000  6.987056e-001 -3.572985e+001 -3.561580e+001  2.744668e+001 -1.796598e+002 -6.124686e+000  6.671304e+001
5.3490625000e+009 -4.334384e+000  4.184557e-001 -3.569331e+001 -3.367699e+001  2.737539e+001 -1.795524e+002 -6.165967e+000  6.675650e+001
5.3491875000e+009 -4.334956e+000  1.260048e-001 -3.513225e+001 -3.353425e+001  2.739367e+001  1.797692e+002 -6.241602e+000  6.701177e+001
5.3493125000e+009 -4.277533e+000 -4.115519e-002 -3.531250e+001 -3.573436e+001  2.744997e+001  1.795184e+002 -6.266757e+000  6.722250e+001
5.3494375000e+009 -4.235221e+000 -6.037261e-002 -3.579107e+001 -3.383194e+001  2.731564e+001  1.791255e+002 -6.296042e+000  6.671555e+001
5.3495625000e+009 -4.186794e+000 -3.834605e-001 -3.539827e+001 -3.199383e+001  2.737621e+001  1.790577e+002 -6.318480e+000  6.731664e+001
5.3496875000e+009 -4.160918e+000 -3.421867e-001 -3.516049e+001 -3.528679e+001  2.739461e+001  1.791680e+002 -6.380005e+000  6.722460e+001
5.3498125000e+009 -4.152415e+000 -5.474280e-001 -3.504848e+001 -3.325457e+001  2.734197e+001  1.785403e+002 -6.393099e+000  6.763553e+001
5.3499375000e+009 -4.110343e+000 -6.229902e-001 -3.522359e+001 -3.680914e+001  2.734690e+001  1.787385e+002 -6.463067e+000  6.706520e+001
5.3500625000e+009 -4.034165e+000 -1.039258e+000 -3.546428e+001 -3.669799e+001  2.735820e+001  1.781224e+002 -6.476821e+000  6.732193e+001
5.3501875000e+009 -4.029821e+000 -9.098350e-001 -3.543363e+001 -3.733435e+001  2.732704e+001  1.776378e+002 -6.477488e+000  6.749390e+001
5.3503125000e+009 -3.991797e+000 -1.129369e+000 -3.494932e+001 -3.625971e+001  2.734015e+001  1.779359e+002 -6.567069e+000  6.727290e+001
5.3504375000e+009 -3.914103e+000 -1.346392e+000 -3.465546e+001 -3.701861e+001  2.742152e+001  1.779838e+002 -6.620867e+000  6.813151e+001
5.3505625000e+009 -3.912416e+000 -1.201795e+000 -3.540327e+001 -3.823503e+001  2.730167e+001  1.768861e+002 -6.584054e+000  6.767877e+001
5.3506875000e+009 -3.865090e+000 -1.162852e+000 -3.471217e+001 -3.845779e+001  2.735953e+001  1.767451e+002 -6.626209e+000  6.813676e+001
5.3508125000e+009 -3.744103e+000 -1.241770e+000 -3.474032e+001 -4.019431e+001  2.731264e+001  1.766133e+002 -6.662127e+000  6.819257e+001
5.3509375000e+009 -3.755776e+000 -1.485706e+000 -3.550405e+001 -4.069446e+001  2.739431e+001  1.763965e+002 -6.709150e+000  6.788707e+001
5.3510625000e+009 -3.701760e+000 -1.499311e+000 -3.448961e+001 -3.605622e+001  2.730953e+001  1.758394e+002 -6.707242e+000  6.891033e+001
5.3511875000e+009 -3.642785e+000 -1.788104e+000 -3.489698e+001 -3.749165e+001  2.732541e+001  1.760613e+002 -6.801420e+000  6.798357e+001
5.3513125000e+009 -3.618628e+000 -1.928739e+000 -3.517674e+001 -3.982027e+001  2.735445e+001  1.761640e+002 -6.907217e+000  6.790807e+001
5.3514375000e+009 -3.570549e+000 -1.894650e+000 -3.497800e+001 -3.624518e+001  2.724794e+001  1.749790e+002 -6.865327e+000  6.840553e+001
5.3515625000e+009 -3.465243e+000 -2.052397e+000 -3.506602e+001 -4.371837e+001  2.730132e+001  1.753417e+002 -6.831004e+000  6.830141e+001
5.3516875000e+009 -3.531139e+000 -2.213560e+000 -3.520229e+001 -3.557711e+001  2.720673e+001  1.745243e+002 -6.895351e+000  6.848157e+001
5.3518125000e+009 -3.452008e+000 -2.410838e+000 -3.491031e+001 -3.995396e+001  2.721674e+001  1.753460e+002 -7.023498e+000  6.781816e+001
5.3519375000e+009 -3.331710e+000 -2.250705e+000 -3.507522e+001 -3.986461e+001  2.729519e+001  1.751015e+002 -7.064157e+000  6.813686e+001
5.3520625000e+009 -3.316418e+000 -2.445183e+000 -3.496883e+001 -3.994037e+001  2.718707e+001  1.738073e+002 -6.986327e+000  6.856843e+001
5.3521875000e+009 -3.234852e+000 -2.481818e+000 -3.533827e+001 -4.398621e+001  2.723782e+001  1.741489e+002 -7.042235e+000  6.818649e+001
5.3523125000e+009 -3.228619e+000 -2.934744e+000 -3.479539e+001 -3.766603e+001  2.729528e+001  1.745571e+002 -7.217389e+000  6.864839e+001
5.3524375000e+009 -3.226271e+000 -2.882498e+000 -3.491506e+001 -4.119399e+001  2.719065e+001  1.727817e+002 -7.048723e+000  6.905945e+001
5.3525625000e+009 -3.135053e+000 -2.636579e+000 -3.454689e+001 -3.857926e+001  2.721034e+001  1.741236e+002 -7.222369e+000  6.863166e+001
5.3526875000e+009 -3.099681e+000 -3.001233e+000 -3.493570e+001 -4.003814e+001  2.720328e+001  1.732088e+002 -7.305453e+000  6.864659e+001
5.3528125000e+009 -3.047745e+000 -3.252471e+000 -3.530383e+001 -3.977841e+001  2.709636e+001  1.725659e+002 -7.112279e+000  6.848736e+001
5.3529375000e+009 -3.022536e+000 -3.146168e+000 -3.460020e+001 -3.903852e+001  2.722401e+001  1.726143e+002 -7.325253e+000  6.953368e+001
5.3530625000e+009 -2.947867e+000 -3.211095e+000 -3.461707e+001 -3.968372e+001  2.712699e+001  1.728099e+002 -7.289390e+000  6.872633e+001
5.3531875000e+009 -2.925667e+000 -3.452589e+000 -3.467267e+001 -3.796762e+001  2.716008e+001  1.719736e+002 -7.310516e+000  6.962125e+001
5.3533125000e+009 -2.844079e+000 -3.139270e+000 -3.499955e+001 -4.223198e+001  2.713871e+001  1.720226e+002 -7.342800e+000  6.894099e+001
5.3534375000e+009 -2.788674e+000 -3.661394e+000 -3.449654e+001 -4.242774e+001  2.717196e+001  1.720022e+002 -7.380093e+000  6.944623e+001
5.3535625000e+009 -2.811440e+000 -3.711207e+000 -3.502225e+001 -4.140069e+001  2.715065e+001  1.704427e+002 -7.340968e+000  7.034999e+001
5.3536875000e+009 -2.769301e+000 -3.928119e+000 -3.523547e+001 -4.088312e+001  2.706845e+001  1.706509e+002 -7.435798e+000  6.925112e+001
5.3538125000e+009 -2.648499e+000 -3.758345e+000 -3.443758e+001 -4.554756e+001  2.709687e+001  1.706764e+002 -7.269482e+000  6.980183e+001
5.3539375000e+009 -2.628433e+000 -4.387441e+000 -3.468059e+001 -4.620727e+001  2.709472e+001  1.708168e+002 -7.461023e+000  6.920463e+001
5.3540625000e+009 -2.675258e+000 -4.563516e+000 -3.485313e+001 -4.275890e+001  2.709431e+001  1.702333e+002 -7.506705e+000  6.989552e+001
5.3541875000e+009 -2.529300e+000 -4.350012e+000 -3.475187e+001 -4.319962e+001  2.705260e+001  1.708866e+002 -7.613094e+000  6.899976e+001
5.3543125000e+009 -2.480914e+000 -4.495905e+000 -3.439095e+001 -4.674485e+001  2.705571e+001  1.701873e+002 -7.491092e+000  6.976054e+001
5.3544375000e+009 -2.481296e+000 -4.742809e+000 -3.489746e+001 -4.109868e+001  2.700643e+001  1.694141e+002 -7.592563e+000  6.992838e+001
5.3545625000e+009 -2.431808e+000 -4.732871e+000 -3.463099e+001 -4.219228e+001  2.699257e+001  1.698428e+002 -7.664648e+000  6.959036e+001
5.3546875000e+009 -2.458971e+000 -5.117638e+000 -3.471271e+001 -4.161039e+001  2.703012e+001  1.691424e+002 -7.638844e+000  7.059846e+001
5.3548125000e+009 -2.394995e+000 -4.751255e+000 -3.410871e+001 -4.461458e+001  2.702265e+001  1.688707e+002 -7.540442e+000  7.086846e+001
5.3549375000e+009 -2.278970e+000 -4.797026e+000 -3.451968e+001 -4.389676e+001  2.692719e+001  1.686490e+002 -7.630608e+000  7.029907e+001
5.3550625000e+009 -2.324165e+000 -5.446088e+000 -3.441099e+001 -4.377837e+001  2.700875e+001  1.686093e+002 -7.637659e+000  7.094727e+001
5.3551875000e+009 -2.238226e+000 -5.274150e+000 -3.408834e+001 -4.393517e+001  2.695872e+001  1.682653e+002 -7.647873e+000  7.095644e+001
5.3553125000e+009 -2.204480e+000 -5.260831e+000 -3.420042e+001 -4.324482e+001  2.692506e+001  1.683801e+002 -7.653905e+000  7.014080e+001
5.3554375000e+009 -2.205494e+000 -5.590622e+000 -3.428325e+001 -4.564000e+001  2.694855e+001  1.681370e+002 -7.682711e+000  7.066963e+001
5.3555625000e+009 -2.088822e+000 -6.263631e+000 -3.426205e+001 -4.771955e+001  2.694238e+001  1.670782e+002 -7.608472e+000  7.125751e+001
5.3556875000e+009 -2.123790e+000 -5.719568e+000 -3.422137e+001 -4.336747e+001  2.685574e+001  1.676190e+002 -7.818730e+000  7.043869e+001
5.3558125000e+009 -2.094848e+000 -6.192728e+000 -3.415384e+001 -4.247802e+001  2.692411e+001  1.669272e+002 -7.783262e+000  7.211245e+001
5.3559375000e+009 -1.995548e+000 -6.143810e+000 -3.451481e+001 -4.387250e+001  2.696667e+001  1.668736e+002 -7.797735e+000  7.191424e+001
5.3560625000e+009 -1.954999e+000 -6.131829e+000 -3.447544e+001 -4.403553e+001  2.686798e+001  1.665347e+002 -7.888361e+000  7.140811e+001
5.3561875000e+009 -1.960692e+000 -6.403746e+000 -3.416388e+001 -4.672616e+001  2.690981e+001  1.664332e+002 -7.740710e+000  7.203194e+001
5.3563125000e+009 -1.948257e+000 -6.746446e+000 -3.464908e+001 -4.613715e+001  2.681846e+001  1.661861e+002 -7.923604e+000  7.048185e+001
5.3564375000e+009 -1.938043e+000 -6.425914e+000 -3.459149e+001 -4.626194e+001  2.686735e+001  1.665617e+002 -8.047758e+000  7.106417e+001
5.3565625000e+009 -1.784867e+000 -6.905421e+000 -3.413592e+001 -4.892243e+001  2.684540e+001  1.654177e+002 -7.752531e+000  7.201718e+001
5.3566875000e+009 -1.808668e+000 -6.955972e+000 -3.424127e+001 -4.824623e+001  2.681687e+001  1.655405e+002 -7.827157e+000  7.163621e+001
5.3568125000e+009 -1.812265e+000 -6.620699e+000 -3.400339e+001 -4.620529e+001  2.677501e+001  1.654650e+002 -7.870916e+000  7.137624e+001
5.3569375000e+009 -1.738494e+000 -7.264259e+000 -3.428237e+001 -4.506510e+001  2.678130e+001  1.652017e+002 -7.937367e+000  7.190321e+001
5.3570625000e+009 -1.704430e+000 -7.320662e+000 -3.422962e+001 -4.740143e+001  2.683835e+001  1.649295e+002 -7.963200e+000  7.296837e+001
5.3571875000e+009 -1.715444e+000 -7.256167e+000 -3.441883e+001 -4.719203e+001  2.675853e+001  1.647340e+002 -8.004491e+000  7.180485e+001
5.3573125000e+009 -1.673416e+000 -7.347267e+000 -3.419444e+001 -4.325300e+001  2.677070e+001  1.646239e+002 -8.134871e+000  7.272587e+001
5.3574375000e+009 -1.599158e+000 -7.459947e+000 -3.394330e+001 -4.514545e+001  2.681674e+001  1.641515e+002 -7.947974e+000  7.375432e+001
5.3575625000e+009 -1.561691e+000 -7.370952e+000 -3.443644e+001 -4.772075e+001  2.672405e+001  1.640565e+002 -8.136109e+000  7.168834e+001
5.3576875000e+009 -1.561203e+000 -8.085092e+000 -3.401011e+001 -4.928979e+001  2.672780e+001  1.635275e+002 -8.040418e+000  7.306316e+001
5.3578125000e+009 -1.494603e+000 -8.183023e+000 -3.389359e+001 -4.812671e+001  2.672761e+001  1.635116e+002 -8.065306e+000  7.325542e+001
5.3579375000e+009 -1.538239e+000 -7.461142e+000 -3.430625e+001 -4.910818e+001  2.670000e+001  1.635244e+002 -8.238302e+000  7.184406e+001
5.3580625000e+009 -1.461326e+000 -8.055908e+000 -3.444132e+001 -4.701419e+001  2.672099e+001  1.632769e+002 -8.118831e+000  7.318490e+001
5.3581875000e+009 -1.473086e+000 -7.469820e+000 -3.400322e+001 -4.367694e+001  2.667137e+001  1.631021e+002 -8.231194e+000  7.360369e+001
5.3583125000e+009 -1.410404e+000 -7.837735e+000 -3.464525e+001 -4.989553e+001  2.670756e+001  1.628537e+002 -8.150746e+000  7.148128e+001
5.3584375000e+009 -1.374880e+000 -8.304757e+000 -3.358368e+001 -5.213869e+001  2.669620e+001  1.626687e+002 -8.115645e+000  7.316003e+001
5.3585625000e+009 -1.330278e+000 -8.323210e+000 -3.397888e+001 -4.785008e+001  2.667658e+001  1.622301e+002 -8.249146e+000  7.401649e+001
5.3586875000e+009 -1.320591e+000 -8.186210e+000 -3.421779e+001 -4.822101e+001  2.663499e+001  1.620322e+002 -8.276060e+000  7.346645e+001
5.3588125000e+009 -1.226773e+000 -8.652132e+000 -3.387347e+001 -4.832705e+001  2.666616e+001  1.619611e+002 -8.250438e+000  7.380125e+001
5.3589375000e+009 -1.249576e+000 -8.776863e+000 -3.398388e+001 -4.737363e+001  2.666141e+001  1.618072e+002 -8.160882e+000  7.459723e+001
5.3590625000e+009 -1.209067e+000 -8.968700e+000 -3.404315e+001 -4.989235e+001  2.662169e+001  1.615201e+002 -8.229655e+000  7.270184e+001
5.3591875000e+009 -1.227201e+000 -8.694818e+000 -3.428711e+001 -4.732839e+001  2.661880e+001  1.613747e+002 -8.279714e+000  7.375693e+001
5.3593125000e+009 -1.118726e+000 -9.094218e+000 -3.431609e+001 -4.871424e+001  2.663415e+001  1.611836e+002 -8.272717e+000  7.416202e+001
5.3594375000e+009 -1.148143e+000 -8.980364e+000 -3.415915e+001 -5.093225e+001  2.657538e+001  1.606901e+002 -8.272472e+000  7.430830e+001
5.3595625000e+009 -1.074189e+000 -9.054550e+000 -3.369462e+001 -5.136100e+001  2.660228e+001  1.607838e+002 -8.252453e+000  7.441566e+001
5.3596875000e+009 -1.088868e+000 -9.379670e+000 -3.393602e+001 -5.196820e+001  2.656930e+001  1.602492e+002 -8.258854e+000  7.494991e+001
5.3598125000e+009 -1.093797e+000 -9.187384e+000 -3.435039e+001 -5.135523e+001  2.659560e+001  1.603946e+002 -8.314259e+000  7.435856e+001
5.3599375000e+009 -1.053094e+000 -9.007169e+000 -3.446726e+001 -4.879668e+001  2.658014e+001  1.600773e+002 -8.230152e+000  7.491394e+001
5.3600625000e+009 -1.058035e+000 -9.261195e+000 -3.351935e+001 -4.916618e+001  2.656866e+001  1.601010e+002 -8.244136e+000  7.555016e+001
5.3601875000e+009 -9.884985e-001 -9.272024e+000 -3.352857e+001 -5.138424e+001  2.659170e+001  1.595183e+002 -8.108328e+000  7.364674e+001
5.3603125000e+009 -9.970774e-001 -9.338457e+000 -3.441269e+001 -5.063654e+001  2.656188e+001  1.594583e+002 -8.317874e+000  7.444714e+001
5.3604375000e+009 -9.145889e-001 -9.798282e+000 -3.462952e+001 -5.301078e+001  2.654289e+001  1.594416e+002 -8.378846e+000  7.537856e+001
5.3605625000e+009 -9.245027e-001 -9.411431e+000 -3.415413e+001 -5.023478e+001  2.652611e+001  1.591340e+002 -8.371222e+000  7.461556e+001
5.3606875000e+009 -8.541256e-001 -9.841977e+000 -3.371726e+001 -5.174707e+001  2.657224e+001  1.589109e+002 -8.274510e+000  7.514433e+001
5.3608125000e+009 -8.630297e-001 -9.868232e+000 -3.364270e+001 -4.755823e+001  2.648361e+001  1.589194e+002 -8.367217e+000  7.680457e+001
5.3609375000e+009 -8.620637e-001 -9.701158e+000 -3.389963e+001 -5.109710e+001  2.649403e+001  1.585834e+002 -8.337785e+000  7.568932e+001
5.3610625000e+009 -7.826040e-001 -1.009450e+001 -3.399284e+001 -5.075260e+001  2.655222e+001  1.584442e+002 -8.289225e+000  7.507413e+001
5.3611875000e+009 -8.035244e-001 -1.004690e+001 -3.350580e+001 -5.205299e+001  2.645255e+001  1.581829e+002 -8.297225e+000  7.609342e+001
5.3613125000e+009 -6.992402e-001 -1.015124e+001 -3.387180e+001 -4.964663e+001  2.646166e+001  1.578770e+002 -8.435622e+000  7.650880e+001
5.3614375000e+009 -6.944040e-001 -1.020316e+001 -3.404307e+001 -5.093820e+001  2.643839e+001  1.578089e+002 -8.402352e+000  7.695379e+001
5.3615625000e+009 -6.785817e-001 -1.021463e+001 -3.373479e+001 -4.968383e+001  2.636703e+001  1.577187e+002 -8.475916e+000  7.789679e+001
5.3616875000e+009 -6.900464e-001 -1.027043e+001 -3.364177e+001 -5.495148e+001  2.650089e+001  1.571492e+002 -8.200565e+000  7.556015e+001
5.3618125000e+009 -6.245903e-001 -1.019169e+001 -3.406738e+001 -4.853638e+001  2.646531e+001  1.567445e+002 -8.370593e+000  7.672505e+001
5.3619375000e+009 -5.996719e-001 -1.036928e+001 -3.330611e+001 -4.878928e+001  2.637952e+001  1.568783e+002 -8.391713e+000  7.803717e+001
5.3620625000e+009 -6.029906e-001 -1.044995e+001 -3.360627e+001 -5.271962e+001  2.639945e+001  1.561334e+002 -8.394959e+000  7.664519e+001
5.3621875000e+009 -5.656219e-001 -1.043363e+001 -3.369988e+001 -5.333413e+001  2.641038e+001  1.566319e+002 -8.284424e+000  7.693250e+001
5.3623125000e+009 -5.653271e-001 -1.058357e+001 -3.357692e+001 -5.271582e+001  2.637778e+001  1.560233e+002 -8.394101e+000  7.723341e+001
5.3624375000e+009 -5.170327e-001 -1.061638e+001 -3.400375e+001 -4.994233e+001  2.645138e+001  1.561284e+002 -8.243353e+000  7.767435e+001
5.3625625000e+009 -5.046921e-001 -1.052137e+001 -3.389524e+001 -5.339638e+001  2.640680e+001  1.557199e+002 -8.393069e+000  7.701162e+001
5.3626875000e+009 -4.585550e-001 -1.078965e+001 -3.347774e+001 -5.330862e+001  2.631812e+001  1.552868e+002 -8.497005e+000  7.764389e+001
5.3628125000e+009 -4.536747e-001 -1.072310e+001 -3.389783e+001 -5.369324e+001  2.633938e+001  1.552885e+002 -8.480416e+000  7.744744e+001
5.3629375000e+009 -3.940335e-001 -1.078945e+001 -3.331610e+001 -5.387655e+001  2.630926e+001  1.552968e+002 -8.404102e+000  7.815907e+001
5.3630625000e+009 -3.948975e-001 -1.082584e+001 -3.390002e+001 -5.400560e+001  2.633627e+001  1.548352e+002 -8.503839e+000  7.789178e+001
5.3631875000e+009 -3.848682e-001 -1.088477e+001 -3.352621e+001 -5.483985e+001  2.641396e+001  1.549186e+002 -8.300530e+000  7.774223e+001
5.3633125000e+009 -3.474345e-001 -1.085686e+001 -3.347573e+001 -5.141630e+001  2.633166e+001  1.545759e+002 -8.434954e+000  7.909137e+001
5.3634375000e+009 -3.253708e-001 -1.084084e+001 -3.369912e+001 -5.651611e+001  2.623301e+001  1.542906e+002 -8.665516e+000  7.848689e+001
5.3635625000e+009 -3.215710e-001 -1.086371e+001 -3.332129e+001 -5.598822e+001  2.628934e+001  1.541297e+002 -8.476218e+000  7.879597e+001
5.3636875000e+009 -2.941617e-001 -1.084191e+001 -3.364863e+001 -5.277517e+001  2.615569e+001  1.537177e+002 -8.757974e+000  8.006107e+001
5.3638125000e+009 -2.808500e-001 -1.082948e+001 -3.391473e+001 -5.517163e+001  2.627815e+001  1.535754e+002 -8.629450e+000  7.927231e+001
5.3639375000e+009 -2.436164e-001 -1.084387e+001 -3.315850e+001 -5.335028e+001  2.624103e+001  1.539001e+002 -8.459229e+000  8.043409e+001
5.3640625000e+009 -2.325348e-001 -1.101091e+001 -3.376884e+001 -5.322206e+001  2.623810e+001  1.533391e+002 -8.675561e+000  8.064021e+001
5.3641875000e+009 -2.157893e-001 -1.077231e+001 -3.386461e+001 -5.493912e+001  2.618106e+001  1.534121e+002 -8.668755e+000  8.060000e+001
5.3643125000e+009 -2.022975e-001 -1.105011e+001 -3.368370e+001 -5.676333e+001  2.627929e+001  1.533594e+002 -8.544969e+000  8.038670e+001
5.3644375000e+009 -1.394592e-001 -1.103827e+001 -3.368730e+001 -5.681429e+001  2.625331e+001  1.525624e+002 -8.708996e+000  8.065838e+001
5.3645625000e+009 -1.496186e-001 -1.087489e+001 -3.363044e+001 -5.361194e+001  2.624785e+001  1.528215e+002 -8.609914e+000  8.120412e+001
5.3646875000e+009 -1.134846e-001 -1.107445e+001 -3.337681e+001 -5.725618e+001  2.621151e+001  1.525757e+002 -8.653476e+000  8.088875e+001
5.3648125000e+009 -9.951441e-002 -1.110447e+001 -3.368863e+001 -5.499607e+001  2.624648e+001  1.524397e+002 -8.677525e+000  8.146906e+001
5.3649375000e+009 -8.819377e-002 -1.106971e+001 -3.354304e+001 -5.744546e+001  2.622715e+001  1.521703e+002 -8.682189e+000  8.143541e+001
5.3650625000e+009 -1.462119e-002 -1.118476e+001 -3.358778e+001 -5.461580e+001  2.619521e+001  1.519610e+002 -8.703594e+000  8.217967e+001
5.3651875000e+009 -1.781447e-003 -1.135957e+001 -3.373867e+001 -5.849743e+001  2.619501e+001  1.518524e+002 -8.722615e+000  8.183200e+001
5.3653125000e+009 -6.065001e-002 -1.121708e+001 -3.308484e+001 -5.873164e+001  2.617875e+001  1.515421e+002 -8.681171e+000  8.165427e+001
5.3654375000e+009  1.771959e-002 -1.141092e+001 -3.371800e+001 -5.340801e+001  2.615551e+001  1.516741e+002 -8.727404e+000  8.336411e+001
5.3655625000e+009  1.378874e-002 -1.145988e+001 -3.330040e+001 -5.775734e+001  2.620748e+001  1.514280e+002 -8.669880e+000  8.300735e+001
5.3656875000e+009  2.184429e-002 -1.147629e+001 -3.323266e+001 -5.796280e+001  2.618367e+001  1.508180e+002 -8.691638e+000  8.265328e+001
5.3658125000e+009  9.353745e-002 -1.118711e+001 -3.328450e+001 -5.717159e+001  2.623210e+001  1.516361e+002 -8.633410e+000  8.342051e+001
5.3659375000e+009  7.815720e-002 -1.153579e+001 -3.316555e+001 -5.891098e+001  2.617537e+001  1.511995e+002 -8.695139e+000  8.320062e+001
5.3660625000e+009  1.011642e-001 -1.155540e+001 -3.390479e+001 -5.868554e+001  2.616362e+001  1.506746e+002 -8.863366e+000  8.373049e+001
5.3661875000e+009  1.256080e-001 -1.114911e+001 -3.342655e+001 -5.720924e+001  2.609023e+001  1.503058e+002 -8.776505e+000  8.416312e+001
5.3663125000e+009  1.894407e-001 -1.140653e+001 -3.327813e+001 -5.490532e+001  2.612424e+001  1.500211e+002 -8.806273e+000  8.468066e+001
5.3664375000e+009  1.287959e-001 -1.165132e+001 -3.333150e+001 -5.760448e+001  2.600867e+001  1.495595e+002 -8.854571e+000  8.481980e+001
5.3665625000e+009  1.772912e-001 -1.167312e+001 -3.362265e+001 -5.957691e+001  2.617550e+001  1.500147e+002 -8.809544e+000  8.471663e+001
5.3666875000e+009  2.028349e-001 -1.168707e+001 -3.340749e+001 -5.660206e+001  2.608032e+001  1.504450e+002 -8.723731e+000  8.574050e+001
5.3668125000e+009  1.864671e-001 -1.155790e+001 -3.326189e+001 -5.866152e+001  2.614790e+001  1.491625e+002 -8.826007e+000  8.529984e+001
5.3669375000e+009  2.261923e-001 -1.205497e+001 -3.279376e+001 -6.051439e+001  2.613212e+001  1.499965e+002 -8.653690e+000  8.504851e+001
5.3670625000e+009  2.584441e-001 -1.199485e+001 -3.336807e+001 -5.837666e+001  2.603537e+001  1.491668e+002 -8.807978e+000  8.617722e+001
5.3671875000e+009  2.290298e-001 -1.196790e+001 -3.302350e+001 -5.682544e+001  2.600046e+001  1.490434e+002 -8.760559e+000  8.621658e+001
5.3673125000e+009  3.177991e-001 -1.168601e+001 -3.324135e+001 -5.477841e+001  2.614778e+001  1.491554e+002 -8.709157e+000  8.705836e+001
5.3674375000e+009  3.286203e-001 -1.180989e+001 -3.276703e+001 -5.673435e+001  2.604776e+001  1.484264e+002 -8.738893e+000  8.673769e+001
5.3675625000e+009  2.742915e-001 -1.210470e+001 -3.337855e+001 -6.006482e+001  2.604678e+001  1.487941e+002 -8.842434e+000  8.690083e+001
5.3676875000e+009  2.866215e-001 -1.182673e+001 -3.361459e+001 -5.911829e+001  2.600916e+001  1.488398e+002 -8.865175e+000  8.778765e+001
5.3678125000e+009  3.314156e-001 -1.198800e+001 -3.335136e+001 -6.062256e+001  2.604576e+001  1.488849e+002 -8.803752e+000  8.739179e+001
5.3679375000e+009  3.087598e-001 -1.223062e+001 -3.293679e+001 -6.158540e+001  2.594115e+001  1.469865e+002 -8.861848e+000  8.672302e+001
5.3680625000e+009  3.797960e-001 -1.218764e+001 -3.346459e+001 -6.089473e+001  2.592744e+001  1.477039e+002 -8.899146e+000  8.805419e+001
5.3681875000e+009  4.114785e-001 -1.153595e+001 -3.331623e+001 -5.840865e+001  2.603119e+001  1.479745e+002 -8.786712e+000  8.852681e+001
5.3683125000e+009  4.251970e-001 -1.176736e+001 -3.366251e+001 -5.643465e+001  2.597351e+001  1.469091e+002 -8.852415e+000  8.891138e+001
5.3684375000e+009  4.506283e-001 -1.246803e+001 -3.363866e+001 -5.758945e+001  2.588128e+001  1.476509e+002 -8.892585e+000  8.991134e+001
5.3685625000e+009  4.954026e-001 -1.162058e+001 -3.339558e+001 -5.869618e+001  2.597097e+001  1.478490e+002 -8.752522e+000  8.963520e+001
5.3686875000e+009  4.010846e-001 -1.259400e+001 -3.357298e+001 -6.105399e+001  2.583710e+001  1.465439e+002 -8.859688e+000  8.938100e+001
5.3688125000e+009  5.096799e-001 -1.310794e+001 -3.299212e+001 -6.080538e+001  2.591401e+001  1.468764e+002 -8.740480e+000  8.949670e+001
5.3689375000e+009  4.644107e-001 -1.241272e+001 -3.376686e+001 -6.324638e+001  2.588823e+001  1.477048e+002 -8.833142e+000  9.030628e+001
5.3690625000e+009  5.247833e-001 -1.318402e+001 -3.300082e+001 -6.125306e+001  2.582822e+001  1.461789e+002 -8.803638e+000  8.983131e+001
5.3691875000e+009  4.605170e-001 -1.252217e+001 -3.344099e+001 -6.125136e+001  2.585865e+001  1.472019e+002 -8.773335e+000  9.045317e+001
5.3693125000e+009  5.444567e-001 -1.234725e+001 -3.378305e+001 -5.695234e+001  2.590018e+001  1.459317e+002 -8.846263e+000  9.143148e+001
5.3694375000e+009  5.474181e-001 -1.280004e+001 -3.300009e+001 -5.961415e+001  2.577641e+001  1.463741e+002 -8.659204e+000  9.140102e+001
5.3695625000e+009  6.395930e-001 -1.218689e+001 -3.331357e+001 -6.198520e+001  2.588466e+001  1.464170e+002 -8.750080e+000  9.120925e+001
5.3696875000e+009  6.185255e-001 -1.300252e+001 -3.348138e+001 -5.726619e+001  2.583613e+001  1.461684e+002 -8.713473e+000  9.225474e+001
5.3698125000e+009  6.413474e-001 -1.318805e+001 -3.326800e+001 -6.217716e+001  2.587237e+001  1.457231e+002 -8.618971e+000  9.137946e+001
5.3699375000e+009  6.226180e-001 -1.292555e+001 -3.272224e+001 -6.317766e+001  2.583831e+001  1.456234e+002 -8.670405e+000  9.152856e+001
5.3700625000e+009  5.708390e-001 -1.262279e+001 -3.288042e+001 -6.277895e+001  2.587914e+001  1.462278e+002 -8.574561e+000  9.171726e+001
5.3701875000e+009  6.687766e-001 -1.347436e+001 -3.352744e+001 -6.155450e+001  2.581658e+001  1.453357e+002 -8.671474e+000  9.217963e+001
5.3703125000e+009  7.268999e-001 -1.319399e+001 -3.294936e+001 -6.180610e+001  2.578512e+001  1.450370e+002 -8.639406e+000  9.221535e+001
5.3704375000e+009  7.246764e-001 -1.271283e+001 -3.332655e+001 -6.520657e+001  2.586286e+001  1.460771e+002 -8.652309e+000  9.255200e+001
5.3705625000e+009  6.505777e-001 -1.326864e+001 -3.290033e+001 -5.967676e+001  2.578560e+001  1.450736e+002 -8.514699e+000  9.271220e+001
5.3706875000e+009  6.760443e-001 -1.179039e+001 -3.410458e+001 -5.742037e+001  2.584818e+001  1.448609e+002 -8.591978e+000  9.367870e+001
5.3708125000e+009  7.026253e-001 -1.365831e+001 -3.386672e+001 -6.479911e+001  2.579712e+001  1.460826e+002 -8.634830e+000  9.321199e+001
5.3709375000e+009  7.286639e-001 -1.427757e+001 -3.279444e+001 -6.326852e+001  2.585434e+001  1.443908e+002 -8.483063e+000  9.269445e+001
5.3710625000e+009  7.820864e-001 -1.312959e+001 -3.311309e+001 -5.955857e+001  2.579640e+001  1.451588e+002 -8.486474e+000  9.351038e+001
5.3711875000e+009  8.182585e-001 -1.255670e+001 -3.323045e+001 -6.483212e+001  2.582905e+001  1.450314e+002 -8.634107e+000  9.300391e+001
5.3713125000e+009  7.689131e-001 -1.340842e+001 -3.303143e+001 -6.587296e+001  2.584829e+001  1.451660e+002 -8.493273e+000  9.291222e+001
5.3714375000e+009  7.546987e-001 -1.361051e+001 -3.305598e+001 -6.518997e+001  2.574421e+001  1.450760e+002 -8.549837e+000  9.339594e+001
5.3715625000e+009  7.952595e-001 -1.317775e+001 -3.349905e+001 -6.053981e+001  2.575462e+001  1.450821e+002 -8.500565e+000  9.453141e+001
5.3716875000e+009  5.866821e-001 -1.381256e+001 -3.370118e+001 -6.426714e+001  2.574332e+001  1.439839e+002 -8.563997e+000  9.396844e+001
5.3718125000e+009  8.316738e-001 -1.346278e+001 -3.298295e+001 -6.118296e+001  2.575095e+001  1.440016e+002 -8.486326e+000  9.441673e+001
5.3719375000e+009  7.793065e-001 -1.311907e+001 -3.290089e+001 -6.241063e+001  2.573714e+001  1.445877e+002 -8.451772e+000  9.418175e+001
5.3720625000e+009  8.306879e-001 -1.298533e+001 -3.295919e+001 -6.199376e+001  2.578568e+001  1.436528e+002 -8.416421e+000  9.424133e+001
5.3721875000e+009  7.758959e-001 -1.296728e+001 -3.367275e+001 -6.364006e+001  2.576985e+001  1.439126e+002 -8.574490e+000  9.461889e+001
5.3723125000e+009  9.193232e-001 -1.404473e+001 -3.274846e+001 -6.365009e+001  2.573057e+001  1.437206e+002 -8.485983e+000  9.439732e+001
5.3724375000e+009  8.425695e-001 -1.493510e+001 -3.277496e+001 -6.516134e+001  2.571964e+001  1.432076e+002 -8.513355e+000  9.422763e+001
5.3725625000e+009  8.155531e-001 -1.358422e+001 -3.348296e+001 -6.610630e+001  2.572498e+001  1.430874e+002 -8.558534e+000  9.482738e+001
5.3726875000e+009  8.680986e-001 -1.393617e+001 -3.314645e+001 -6.660231e+001  2.567408e+001  1.432379e+002 -8.575582e+000  9.451184e+001
5.3728125000e+009  8.725941e-001 -1.393796e+001 -3.336554e+001 -6.886536e+001  2.572384e+001  1.427568e+002 -8.614940e+000  9.460954e+001
5.3729375000e+009  9.296839e-001 -1.361353e+001 -3.294516e+001 -6.207239e+001  2.577780e+001  1.422128e+002 -8.439785e+000  9.539393e+001
5.3730625000e+009  8.769872e-001 -1.368056e+001 -3.250747e+001 -6.431533e+001  2.574315e+001  1.421842e+002 -8.460864e+000  9.492297e+001
5.3731875000e+009  9.471818e-001 -1.582041e+001 -3.261042e+001 -6.676861e+001  2.570767e+001  1.417780e+002 -8.558750e+000  9.467065e+001
5.3733125000e+009  8.470644e-001 -1.417109e+001 -3.323504e+001 -6.573831e+001  2.567074e+001  1.420636e+002 -8.612926e+000  9.565858e+001
5.3734375000e+009  9.400467e-001 -1.345845e+001 -3.323392e+001 -6.747418e+001  2.567439e+001  1.420802e+002 -8.628294e+000  9.576933e+001
5.3735625000e+009  1.069323e+000 -1.441210e+001 -3.278175e+001 -6.963728e+001  2.574820e+001  1.415104e+002 -8.621408e+000  9.506639e+001
5.3736875000e+009  9.677066e-001 -1.406356e+001 -3.302738e+001 -6.602119e+001  2.567172e+001  1.418354e+002 -8.563180e+000  9.606370e+001
5.3738125000e+009  1.137053e+000 -1.437055e+001 -3.293090e+001 -6.382578e+001  2.563320e+001  1.413988e+002 -8.564978e+000  9.645581e+001
5.3739375000e+009  1.122844e+000 -1.527451e+001 -3.295085e+001 -6.915150e+001  2.568649e+001  1.411829e+002 -8.614274e+000  9.635781e+001
5.3740625000e+009  1.020745e+000 -1.413919e+001 -3.309598e+001 -6.682763e+001  2.562636e+001  1.411217e+002 -8.619871e+000  9.660252e+001
5.3741875000e+009  1.066711e+000 -1.348828e+001 -3.359701e+001 -6.254293e+001  2.567014e+001  1.410491e+002 -8.556063e+000  9.781564e+001
5.3743125000e+009  1.009354e+000 -1.409317e+001 -3.304799e+001 -6.763505e+001  2.566945e+001  1.412455e+002 -8.591992e+000  9.673798e+001
5.3744375000e+009  1.137632e+000 -1.464678e+001 -3.280813e+001 -6.862653e+001  2.559405e+001  1.404851e+002 -8.645947e+000  9.684563e+001
5.3745625000e+009  9.088937e-001 -1.402383e+001 -3.289264e+001 -6.587094e+001  2.557298e+001  1.407513e+002 -8.554123e+000  9.697322e+001
5.3746875000e+009  1.110889e+000 -1.487198e+001 -3.271494e+001 -6.976588e+001  2.558720e+001  1.400373e+002 -8.699450e+000  9.715988e+001
5.3748125000e+009  1.055036e+000 -1.433892e+001 -3.305716e+001 -6.574458e+001  2.560687e+001  1.401703e+002 -8.551805e+000  9.840021e+001
5.3749375000e+009  1.104320e+000 -1.474295e+001 -3.274897e+001 -6.695834e+001  2.554568e+001  1.402067e+002 -8.566408e+000  9.804029e+001
5.3750625000e+009  1.244024e+000 -1.541973e+001 -3.296742e+001 -6.869364e+001  2.558426e+001  1.396893e+002 -8.643653e+000  9.844671e+001
5.3751875000e+009  1.129153e+000 -1.413198e+001 -3.308371e+001 -6.516541e+001  2.559219e+001  1.397652e+002 -8.618832e+000  9.883000e+001
5.3753125000e+009  1.102429e+000 -1.475918e+001 -3.273140e+001 -7.060348e+001  2.552687e+001  1.394174e+002 -8.766781e+000  9.856373e+001
5.3754375000e+009  1.125831e+000 -1.449654e+001 -3.267718e+001 -7.245892e+001  2.551076e+001  1.396172e+002 -8.806429e+000  9.805492e+001
5.3755625000e+009  1.137813e+000 -1.519014e+001 -3.309282e+001 -7.157645e+001  2.550935e+001  1.392604e+002 -8.803529e+000  9.921421e+001
5.3756875000e+009  1.044418e+000 -1.482911e+001 -3.331726e+001 -7.064468e+001  2.546820e+001  1.389355e+002 -8.861050e+000  9.970869e+001
5.3758125000e+009  1.234395e+000 -1.508109e+001 -3.262040e+001 -6.593758e+001  2.550490e+001  1.387829e+002 -8.637281e+000  9.954063e+001
5.3759375000e+009  1.225453e+000 -1.543836e+001 -3.307785e+001 -7.179919e+001  2.545943e+001  1.384600e+002 -8.935461e+000  1.001955e+002
5.3760625000e+009  1.134908e+000 -1.517890e+001 -3.340920e+001 -7.083028e+001  2.543792e+001  1.383493e+002 -8.954201e+000  1.006753e+002
5.3761875000e+009  1.313755e+000 -1.592080e+001 -3.240741e+001 -6.943578e+001  2.541162e+001  1.380264e+002 -8.923762e+000  9.992661e+001
5.3763125000e+009  1.204136e+000 -1.636041e+001 -3.275695e+001 -7.237273e+001  2.541766e+001  1.381196e+002 -8.929459e+000  1.002813e+002
5.3764375000e+009  1.101067e+000 -1.666207e+001 -3.299471e+001 -7.228376e+001  2.533978e+001  1.378104e+002 -9.026857e+000  1.006441e+002
5.3765625000e+009  1.096695e+000 -1.629104e+001 -3.324291e+001 -6.855476e+001  2.535077e+001  1.379778e+002 -8.984771e+000  1.021471e+002
5.3766875000e+009  1.235778e+000 -1.728806e+001 -3.249972e+001 -7.685564e+001  2.532065e+001  1.373321e+002 -9.198167e+000  1.008527e+002
5.3768125000e+009  1.175985e+000 -1.713472e+001 -3.228661e+001 -7.361648e+001  2.530231e+001  1.372177e+002 -9.227957e+000  1.011943e+002
5.3769375000e+009  1.128465e+000 -1.661404e+001 -3.312392e+001 -6.886541e+001  2.526246e+001  1.374422e+002 -9.096615e+000  1.033229e+002
5.3770625000e+009  1.145914e+000 -1.729763e+001 -3.236060e+001 -7.337493e+001  2.526887e+001  1.369184e+002 -9.192047e+000  1.014022e+002
5.3771875000e+009  1.175487e+000 -1.729280e+001 -3.348943e+001 -7.141407e+001  2.527579e+001  1.368895e+002 -9.141186e+000  1.029117e+002
5.3773125000e+009  1.174323e+000 -1.739258e+001 -3.285915e+001 -7.434095e+001  2.519532e+001  1.368813e+002 -9.247448e+000  1.032451e+002
5.3774375000e+009  1.300986e+000 -1.838723e+001 -3.249328e+001 -7.808656e+001  2.523401e+001  1.363134e+002 -9.414436e+000  1.018312e+002
5.3775625000e+009  1.163446e+000 -1.780717e+001 -3.248995e+001 -7.762865e+001  2.518194e+001  1.361304e+002 -9.415052e+000  1.025733e+002
5.3776875000e+009  1.296772e+000 -1.841543e+001 -3.246385e+001 -7.523330e+001  2.512980e+001  1.360181e+002 -9.323840e+000  1.041264e+002
5.3778125000e+009  1.366168e+000 -1.849187e+001 -3.249965e+001 -7.687771e+001  2.515327e+001  1.357751e+002 -9.416256e+000  1.032936e+002
5.3779375000e+009  1.062652e+000 -1.849352e+001 -3.270459e+001 -7.671114e+001  2.513148e+001  1.359445e+002 -9.424603e+000  1.037061e+002
5.3780625000e+009  1.242093e+000 -1.877781e+001 -3.236200e+001 -7.556519e+001  2.507059e+001  1.355696e+002 -9.424940e+000  1.042774e+002
5.3781875000e+009  1.175461e+000 -1.877125e+001 -3.317123e+001 -7.409267e+001  2.507096e+001  1.354700e+002 -9.487371e+000  1.053060e+002
5.3783125000e+009  1.254909e+000 -1.851772e+001 -3.235276e+001 -7.433115e+001  2.512590e+001  1.350830e+002 -9.442473e+000  1.037504e+002
5.3784375000e+009  1.322238e+000 -1.960916e+001 -3.288853e+001 -7.456469e+001  2.502592e+001  1.349769e+002 -9.486917e+000  1.056930e+002
5.3785625000e+009  1.228270e+000 -1.944284e+001 -3.279442e+001 -7.599641e+001  2.506783e+001  1.346497e+002 -9.655182e+000  1.050331e+002
5.3786875000e+009  1.263518e+000 -1.942089e+001 -3.278545e+001 -7.362363e+001  2.503432e+001  1.348223e+002 -9.459537e+000  1.054317e+002
5.3788125000e+009  1.283943e+000 -1.992280e+001 -3.198268e+001 -7.328197e+001  2.492968e+001  1.348593e+002 -9.395497e+000  1.053440e+002
5.3789375000e+009  1.175771e+000 -1.988003e+001 -3.283868e+001 -8.010808e+001  2.497565e+001  1.343687e+002 -9.799762e+000  1.060409e+002
5.3790625000e+009  1.251879e+000 -2.024440e+001 -3.246739e+001 -7.718677e+001  2.493764e+001  1.342153e+002 -9.636100e+000  1.062690e+002
5.3791875000e+009  1.374244e+000 -2.017939e+001 -3.265578e+001 -7.690433e+001  2.488435e+001  1.340620e+002 -9.658615e+000  1.073845e+002
5.3793125000e+009  1.324549e+000 -2.070831e+001 -3.203908e+001 -7.779195e+001  2.484662e+001  1.335277e+002 -9.771813e+000  1.067639e+002
5.3794375000e+009  1.193516e+000 -2.105128e+001 -3.212134e+001 -8.181733e+001  2.494125e+001  1.340563e+002 -9.802378e+000  1.055174e+002
5.3795625000e+009  1.291799e+000 -2.079221e+001 -3.253825e+001 -7.517810e+001  2.484470e+001  1.338012e+002 -9.649277e+000  1.073575e+002
5.3796875000e+009  1.332273e+000 -2.112750e+001 -3.228715e+001 -7.476157e+001  2.473227e+001  1.329933e+002 -9.776900e+000  1.084292e+002
5.3798125000e+009  1.351202e+000 -2.048688e+001 -3.269788e+001 -8.014655e+001  2.490851e+001  1.334848e+002 -9.854644e+000  1.075821e+002
5.3799375000e+009  1.485042e+000 -2.093485e+001 -3.253660e+001 -7.576337e+001  2.477992e+001  1.331131e+002 -9.756624e+000  1.088475e+002
5.3800625000e+009  1.425113e+000 -2.156980e+001 -3.197210e+001 -7.671497e+001  2.483294e+001  1.329508e+002 -9.777329e+000  1.071704e+002
5.3801875000e+009  1.442300e+000 -2.161301e+001 -3.228759e+001 -7.745734e+001  2.477733e+001  1.325607e+002 -9.931990e+000  1.081522e+002
5.3803125000e+009  1.383140e+000 -2.200381e+001 -3.220702e+001 -8.548767e+001  2.479284e+001  1.331912e+002 -1.003790e+001  1.081482e+002
5.3804375000e+009  1.398799e+000 -2.222787e+001 -3.196764e+001 -7.960976e+001  2.472769e+001  1.326792e+002 -9.913478e+000  1.083930e+002
5.3805625000e+009  1.360104e+000 -2.251626e+001 -3.188170e+001 -7.864593e+001  2.473540e+001  1.324827e+002 -9.908998e+000  1.080988e+002
5.3806875000e+009  1.418336e+000 -2.206463e+001 -3.197951e+001 -8.035233e+001  2.471997e+001  1.322212e+002 -1.005417e+001  1.085929e+002
5.3808125000e+009  1.438789e+000 -2.250026e+001 -3.233039e+001 -8.060836e+001  2.471283e+001  1.321805e+002 -1.003989e+001  1.093403e+002
5.3809375000e+009  1.311020e+000 -2.307790e+001 -3.173107e+001 -8.118581e+001  2.479531e+001  1.329252e+002 -9.911173e+000  1.076294e+002
5.3810625000e+009  1.385620e+000 -2.326056e+001 -3.251095e+001 -8.211585e+001  2.459142e+001  1.318361e+002 -1.012624e+001  1.107415e+002
5.3811875000e+009  1.414583e+000 -2.263649e+001 -3.261245e+001 -8.081832e+001  2.461785e+001  1.321359e+002 -1.000277e+001  1.109187e+002
5.3813125000e+009  1.342055e+000 -2.374182e+001 -3.198006e+001 -8.031289e+001  2.457642e+001  1.318676e+002 -9.986437e+000  1.100914e+002
5.3814375000e+009  1.432467e+000 -2.307432e+001 -3.247721e+001 -8.328722e+001  2.458902e+001  1.314832e+002 -1.023860e+001  1.111094e+002
5.3815625000e+009  1.449385e+000 -2.306516e+001 -3.244394e+001 -8.364159e+001  2.453506e+001  1.307595e+002 -1.034071e+001  1.117606e+002
5.3816875000e+009  1.458219e+000 -2.380469e+001 -3.188822e+001 -8.067655e+001  2.456912e+001  1.310697e+002 -1.017272e+001  1.104873e+002
5.3818125000e+009  1.418169e+000 -2.374263e+001 -3.188462e+001 -8.278881e+001  2.452429e+001  1.313524e+002 -1.020499e+001  1.108848e+002
5.3819375000e+009  1.419068e+000 -2.391112e+001 -3.280264e+001 -8.044217e+001  2.445419e+001  1.307532e+002 -1.021643e+001  1.126825e+002
5.3820625000e+009  1.427609e+000 -2.434527e+001 -3.221097e+001 -8.831972e+001  2.443628e+001  1.309758e+002 -1.040706e+001  1.126712e+002
5.3821875000e+009  1.463123e+000 -2.399552e+001 -3.211128e+001 -8.784396e+001  2.439152e+001  1.306079e+002 -1.047815e+001  1.133651e+002
5.3823125000e+009  1.459925e+000 -2.442925e+001 -3.209988e+001 -8.311345e+001  2.441463e+001  1.299424e+002 -1.040534e+001  1.126595e+002
5.3824375000e+009  1.461465e+000 -2.492101e+001 -3.160353e+001 -8.344311e+001  2.437130e+001  1.307543e+002 -1.028335e+001  1.121301e+002
5.3825625000e+009  1.457922e+000 -2.471840e+001 -3.226300e+001 -8.823322e+001  2.428564e+001  1.299258e+002 -1.053625e+001  1.145274e+002
5.3826875000e+009  1.467995e+000 -2.458346e+001 -3.194163e+001 -8.482999e+001  2.430281e+001  1.296568e+002 -1.054292e+001  1.138156e+002
5.3828125000e+009  1.497460e+000 -2.508323e+001 -3.236143e+001 -8.510941e+001  2.432940e+001  1.300447e+002 -1.043310e+001  1.139579e+002
5.3829375000e+009  1.501621e+000 -2.483451e+001 -3.173259e+001 -8.503573e+001  2.429033e+001  1.298220e+002 -1.049057e+001  1.135450e+002
5.3830625000e+009  1.553755e+000 -2.511919e+001 -3.223103e+001 -8.804638e+001  2.430555e+001  1.290054e+002 -1.073251e+001  1.145076e+002
5.3831875000e+009  1.554630e+000 -2.535128e+001 -3.213059e+001 -8.868596e+001  2.427517e+001  1.293978e+002 -1.064620e+001  1.146668e+002
5.3833125000e+009  1.542592e+000 -2.554678e+001 -3.192777e+001 -8.651556e+001  2.423552e+001  1.288279e+002 -1.068302e+001  1.147906e+002
5.3834375000e+009  1.558822e+000 -2.520778e+001 -3.293529e+001 -8.288054e+001  2.416751e+001  1.289359e+002 -1.046369e+001  1.163511e+002
5.3835625000e+009  1.572024e+000 -2.598992e+001 -3.203643e+001 -8.313026e+001  2.411469e+001  1.292151e+002 -1.048904e+001  1.155126e+002
5.3836875000e+009  1.571011e+000 -2.575399e+001 -3.202871e+001 -8.610966e+001  2.427330e+001  1.284786e+002 -1.073815e+001  1.144911e+002
5.3838125000e+009  1.580759e+000 -2.564888e+001 -3.171116e+001 -8.272527e+001  2.412338e+001  1.283290e+002 -1.068123e+001  1.154270e+002
5.3839375000e+009  1.549937e+000 -2.605971e+001 -3.252039e+001 -9.087701e+001  2.412383e+001  1.289975e+002 -1.072247e+001  1.173832e+002
5.3840625000e+009  1.618712e+000 -2.614854e+001 -3.163846e+001 -8.545956e+001  2.406266e+001  1.283695e+002 -1.071188e+001  1.157906e+002
5.3841875000e+009  1.611862e+000 -2.629714e+001 -3.255301e+001 -9.067677e+001  2.413741e+001  1.271504e+002 -1.105521e+001  1.177105e+002
5.3843125000e+009  1.625827e+000 -2.655073e+001 -3.179040e+001 -9.089185e+001  2.405374e+001  1.282994e+002 -1.087551e+001  1.170673e+002
5.3844375000e+009  1.643280e+000 -2.665043e+001 -3.220971e+001 -8.773009e+001  2.403498e+001  1.283630e+002 -1.074780e+001  1.175105e+002
5.3845625000e+009  1.601740e+000 -2.676846e+001 -3.231744e+001 -9.017994e+001  2.398988e+001  1.277209e+002 -1.087906e+001  1.181100e+002
5.3846875000e+009  1.644664e+000 -2.672731e+001 -3.173170e+001 -9.067784e+001  2.394022e+001  1.279405e+002 -1.089216e+001  1.182065e+002
5.3848125000e+009  1.648020e+000 -2.680291e+001 -3.216982e+001 -8.687160e+001  2.399852e+001  1.271875e+002 -1.092236e+001  1.179564e+002
5.3849375000e+009  1.724769e+000 -2.707409e+001 -3.179414e+001 -8.455001e+001  2.398804e+001  1.273190e+002 -1.086710e+001  1.169540e+002
5.3850625000e+009  1.666482e+000 -2.729797e+001 -3.189729e+001 -8.727631e+001  2.394505e+001  1.274295e+002 -1.088158e+001  1.176912e+002
5.3851875000e+009  1.707679e+000 -2.737303e+001 -3.138297e+001 -8.868849e+001  2.376349e+001  1.272286e+002 -1.097905e+001  1.187523e+002
5.3853125000e+009  1.655375e+000 -2.731762e+001 -3.167660e+001 -8.811237e+001  2.389655e+001  1.270972e+002 -1.098642e+001  1.182238e+002
5.3854375000e+009  1.736623e+000 -2.734396e+001 -3.109254e+001 -9.162334e+001  2.383982e+001  1.272060e+002 -1.118011e+001  1.185553e+002
5.3855625000e+009  1.701306e+000 -2.744669e+001 -3.191608e+001 -9.158804e+001  2.379228e+001  1.270093e+002 -1.107894e+001  1.201284e+002
5.3856875000e+009  1.654876e+000 -2.798124e+001 -3.172350e+001 -9.181692e+001  2.376208e+001  1.265824e+002 -1.116125e+001  1.198950e+002
5.3858125000e+009  1.773735e+000 -2.702560e+001 -3.213828e+001 -8.831372e+001  2.387749e+001  1.270265e+002 -1.093888e+001  1.189279e+002
5.3859375000e+009  1.774609e+000 -2.798572e+001 -3.149172e+001 -8.982393e+001  2.371438e+001  1.264311e+002 -1.116786e+001  1.200683e+002
5.3860625000e+009  1.759028e+000 -2.793713e+001 -3.092441e+001 -8.785310e+001  2.369163e+001  1.261554e+002 -1.117697e+001  1.192009e+002
5.3861875000e+009  1.828709e+000 -2.776539e+001 -3.232737e+001 -9.294627e+001  2.366783e+001  1.262983e+002 -1.101243e+001  1.219046e+002
5.3863125000e+009  1.901988e+000 -2.829461e+001 -3.196148e+001 -9.439989e+001  2.381097e+001  1.252310e+002 -1.140662e+001  1.208499e+002
5.3864375000e+009  1.819279e+000 -2.820547e+001 -3.150356e+001 -9.044566e+001  2.368675e+001  1.253347e+002 -1.131210e+001  1.207692e+002
5.3865625000e+009  1.829606e+000 -2.793163e+001 -3.191632e+001 -9.445071e+001  2.364035e+001  1.256282e+002 -1.127049e+001  1.225547e+002
5.3866875000e+009  1.841326e+000 -2.818708e+001 -3.199889e+001 -9.065089e+001  2.369783e+001  1.254763e+002 -1.124146e+001  1.213236e+002
5.3868125000e+009  1.778955e+000 -2.801089e+001 -3.165392e+001 -9.287674e+001  2.369964e+001  1.249044e+002 -1.148112e+001  1.216589e+002
5.3869375000e+009  1.876050e+000 -2.864790e+001 -3.157769e+001 -8.978653e+001  2.355509e+001  1.251321e+002 -1.126288e+001  1.215540e+002
5.3870625000e+009  1.893015e+000 -2.793736e+001 -3.181796e+001 -9.116428e+001  2.359924e+001  1.244735e+002 -1.140011e+001  1.227872e+002
5.3871875000e+009  1.908355e+000 -2.817290e+001 -3.107153e+001 -8.999337e+001  2.358692e+001  1.247498e+002 -1.143266e+001  1.212115e+002
5.3873125000e+009  1.847001e+000 -2.808491e+001 -3.134275e+001 -9.338068e+001  2.349658e+001  1.248137e+002 -1.144341e+001  1.235062e+002
5.3874375000e+009  1.996780e+000 -2.864661e+001 -3.217092e+001 -9.326929e+001  2.353404e+001  1.241003e+002 -1.140721e+001  1.238816e+002
5.3875625000e+009  1.906836e+000 -2.888898e+001 -3.114697e+001 -9.626853e+001  2.351737e+001  1.245236e+002 -1.162221e+001  1.230706e+002
5.3876875000e+009  1.916983e+000 -2.816270e+001 -3.161222e+001 -9.335761e+001  2.352475e+001  1.243268e+002 -1.145533e+001  1.233601e+002
5.3878125000e+009  1.939781e+000 -2.842445e+001 -3.140558e+001 -9.146850e+001  2.346541e+001  1.244721e+002 -1.145400e+001  1.230298e+002
5.3879375000e+009  1.878178e+000 -2.940401e+001 -3.128128e+001 -9.432739e+001  2.344487e+001  1.241235e+002 -1.169971e+001  1.238621e+002
5.3880625000e+009  1.898839e+000 -2.934829e+001 -3.148738e+001 -9.503802e+001  2.328775e+001  1.243352e+002 -1.150762e+001  1.256776e+002
5.3881875000e+009  1.864009e+000 -3.016361e+001 -3.105540e+001 -9.367085e+001  2.335990e+001  1.240089e+002 -1.175123e+001  1.243660e+002
5.3883125000e+009  1.990550e+000 -2.979535e+001 -3.192972e+001 -9.418148e+001  2.339951e+001  1.234204e+002 -1.172793e+001  1.255669e+002
5.3884375000e+009  2.022475e+000 -3.008223e+001 -3.139257e+001 -9.082259e+001  2.324061e+001  1.243158e+002 -1.149597e+001  1.245813e+002
5.3885625000e+009  2.050244e+000 -3.148481e+001 -3.137337e+001 -9.712746e+001  2.320947e+001  1.238677e+002 -1.173194e+001  1.264923e+002
5.3886875000e+009  1.965663e+000 -3.215459e+001 -3.172593e+001 -9.626705e+001  2.327394e+001  1.236119e+002 -1.182293e+001  1.260547e+002
5.3888125000e+009  1.914640e+000 -3.253205e+001 -3.125216e+001 -9.403306e+001  2.314540e+001  1.243506e+002 -1.172037e+001  1.258301e+002
5.3889375000e+009  1.917527e+000 -3.213481e+001 -3.162870e+001 -9.710821e+001  2.316119e+001  1.238507e+002 -1.180493e+001  1.274044e+002
5.3890625000e+009  1.948739e+000 -3.307359e+001 -3.101164e+001 -1.015519e+002  2.311880e+001  1.231434e+002 -1.224544e+001  1.285122e+002
5.3891875000e+009  1.987849e+000 -3.350253e+001 -3.117021e+001 -9.679745e+001  2.308579e+001  1.228535e+002 -1.211413e+001  1.278164e+002
5.3893125000e+009  2.001891e+000 -3.325996e+001 -3.191870e+001 -9.995002e+001  2.306467e+001  1.231852e+002 -1.200123e+001  1.295359e+002
5.3894375000e+009  1.810310e+000 -3.421328e+001 -3.143876e+001 -1.010719e+002  2.298069e+001  1.235563e+002 -1.207686e+001  1.300462e+002
5.3895625000e+009  1.917481e+000 -3.333406e+001 -3.198043e+001 -1.000689e+002  2.306874e+001  1.232583e+002 -1.206020e+001  1.296857e+002
5.3896875000e+009  1.970321e+000 -3.518926e+001 -3.099458e+001 -1.012260e+002  2.304481e+001  1.229303e+002 -1.256271e+001  1.291065e+002
5.3898125000e+009  2.026698e+000 -3.486119e+001 -3.129449e+001 -9.817503e+001  2.292832e+001  1.231153e+002 -1.217689e+001  1.296532e+002
5.3899375000e+009  1.863236e+000 -3.488024e+001 -3.157278e+001 -9.936765e+001  2.296405e+001  1.233290e+002 -1.219170e+001  1.297401e+002
5.3900625000e+009  1.858401e+000 -3.505247e+001 -3.127088e+001 -9.929387e+001  2.292149e+001  1.234248e+002 -1.226023e+001  1.300467e+002
5.3901875000e+009  1.973451e+000 -3.709494e+001 -3.134223e+001 -1.041534e+002  2.283040e+001  1.232984e+002 -1.231098e+001  1.316264e+002
5.3903125000e+009  1.954524e+000 -3.517522e+001 -3.128544e+001 -9.787078e+001  2.287037e+001  1.230907e+002 -1.225913e+001  1.303756e+002
5.3904375000e+009  1.863691e+000 -3.608304e+001 -3.147079e+001 -9.712287e+001  2.284713e+001  1.235680e+002 -1.218596e+001  1.299063e+002
5.3905625000e+009  2.106861e+000 -3.774540e+001 -3.135009e+001 -1.015811e+002  2.278004e+001  1.229419e+002 -1.233447e+001  1.315079e+002
5.3906875000e+009  1.943762e+000 -3.650882e+001 -3.151565e+001 -1.011698e+002  2.281397e+001  1.229501e+002 -1.243462e+001  1.322531e+002
5.3908125000e+009  2.004056e+000 -3.743051e+001 -3.150762e+001 -1.022508e+002  2.275179e+001  1.228714e+002 -1.243180e+001  1.325269e+002
5.3909375000e+009  2.103350e+000 -3.830824e+001 -3.124716e+001 -1.037961e+002  2.270970e+001  1.229107e+002 -1.251632e+001  1.328109e+002
5.3910625000e+009  1.845356e+000 -3.793687e+001 -3.188610e+001 -1.046214e+002  2.270485e+001  1.232244e+002 -1.237955e+001  1.337397e+002
5.3911875000e+009  2.127422e+000 -3.886175e+001 -3.123160e+001 -1.023172e+002  2.261401e+001  1.228240e+002 -1.249474e+001  1.338432e+002
5.3913125000e+009  2.253285e+000 -4.022319e+001 -3.103877e+001 -1.018166e+002  2.265574e+001  1.225906e+002 -1.273619e+001  1.318937e+002
5.3914375000e+009  2.097197e+000 -3.665669e+001 -3.167503e+001 -9.997350e+001  2.268778e+001  1.224663e+002 -1.258463e+001  1.330731e+002
5.3915625000e+009  1.887508e+000 -3.847924e+001 -3.213553e+001 -1.004857e+002  2.264263e+001  1.228405e+002 -1.245660e+001  1.336943e+002
5.3916875000e+009  2.114669e+000 -3.990767e+001 -3.099081e+001 -1.031697e+002  2.261296e+001  1.227625e+002 -1.280160e+001  1.326633e+002
5.3918125000e+009  2.095804e+000 -4.020604e+001 -3.100758e+001 -1.073711e+002  2.253650e+001  1.227409e+002 -1.270714e+001  1.351360e+002
5.3919375000e+009  2.198550e+000 -4.066561e+001 -3.153992e+001 -1.031583e+002  2.251008e+001  1.224247e+002 -1.264066e+001  1.343488e+002
5.3920625000e+009  2.310705e+000 -4.093632e+001 -3.125266e+001 -1.049061e+002  2.249046e+001  1.224608e+002 -1.282461e+001  1.345128e+002
5.3921875000e+009  2.067786e+000 -4.100375e+001 -3.105402e+001 -1.053660e+002  2.243041e+001  1.224991e+002 -1.278858e+001  1.360373e+002
5.3923125000e+009  2.334051e+000 -4.208055e+001 -3.066524e+001 -1.067401e+002  2.236349e+001  1.222101e+002 -1.291316e+001  1.364580e+002
5.3924375000e+009  2.441678e+000 -4.336200e+001 -3.064008e+001 -1.049480e+002  2.231269e+001  1.221297e+002 -1.301354e+001  1.354724e+002
5.3925625000e+009  2.396860e+000 -4.365469e+001 -3.119700e+001 -1.105035e+002  2.227724e+001  1.221288e+002 -1.289454e+001  1.377891e+002
5.3926875000e+009  2.393434e+000 -4.282519e+001 -3.164711e+001 -1.053069e+002  2.234801e+001  1.221477e+002 -1.268384e+001  1.356559e+002
5.3928125000e+009  2.464650e+000 -4.317447e+001 -3.070527e+001 -1.071269e+002  2.229379e+001  1.217883e+002 -1.322192e+001  1.362176e+002
5.3929375000e+009  2.259675e+000 -4.335054e+001 -3.099050e+001 -1.073160e+002  2.226472e+001  1.220113e+002 -1.292043e+001  1.378261e+002
5.3930625000e+009  2.289073e+000 -4.224532e+001 -3.096313e+001 -1.094582e+002  2.228513e+001  1.221634e+002 -1.296435e+001  1.381794e+002
5.3931875000e+009  2.251672e+000 -4.260943e+001 -3.085870e+001 -1.042855e+002  2.227542e+001  1.223549e+002 -1.294359e+001  1.361464e+002
5.3933125000e+009  2.444221e+000 -4.531808e+001 -3.085378e+001 -1.085833e+002  2.215552e+001  1.218327e+002 -1.302847e+001  1.378854e+002
5.3934375000e+009  2.411000e+000 -4.423429e+001 -3.118599e+001 -1.084653e+002  2.214808e+001  1.220292e+002 -1.295863e+001  1.383326e+002
5.3935625000e+009  2.494545e+000 -4.554107e+001 -3.049187e+001 -1.105553e+002  2.208920e+001  1.217070e+002 -1.329221e+001  1.392984e+002
5.3936875000e+009  2.285356e+000 -4.514052e+001 -3.127774e+001 -1.070012e+002  2.212283e+001  1.221465e+002 -1.301214e+001  1.391033e+002
5.3938125000e+009  2.231131e+000 -4.496631e+001 -3.105367e+001 -1.062670e+002  2.209138e+001  1.221798e+002 -1.308055e+001  1.388837e+002
5.3939375000e+009  2.592514e+000 -4.473663e+001 -3.063356e+001 -1.065324e+002  2.207113e+001  1.217143e+002 -1.334979e+001  1.377556e+002
5.3940625000e+009  2.527453e+000 -4.624996e+001 -3.095635e+001 -1.054600e+002  2.201376e+001  1.217206e+002 -1.314624e+001  1.392170e+002
5.3941875000e+009  2.753785e+000 -4.559104e+001 -3.079287e+001 -1.069897e+002  2.202317e+001  1.214012e+002 -1.329111e+001  1.388238e+002
5.3943125000e+009  3.017173e+000 -4.783459e+001 -3.058928e+001 -1.128180e+002  2.188394e+001  1.212015e+002 -1.331856e+001  1.409682e+002
5.3944375000e+009  2.745286e+000 -4.761408e+001 -3.035172e+001 -1.112730e+002  2.193558e+001  1.212359e+002 -1.339524e+001  1.400518e+002
5.3945625000e+009  2.318220e+000 -4.580927e+001 -3.130547e+001 -1.094073e+002  2.203329e+001  1.219626e+002 -1.314069e+001  1.404743e+002
5.3946875000e+009  2.965166e+000 -4.645909e+001 -3.084284e+001 -1.063111e+002  2.188622e+001  1.211021e+002 -1.328000e+001  1.385280e+002
5.3948125000e+009  2.282763e+000 -4.793934e+001 -3.115686e+001 -1.107353e+002  2.190734e+001  1.221195e+002 -1.317597e+001  1.406012e+002
5.3949375000e+009  2.779253e+000 -4.680895e+001 -3.095584e+001 -1.159661e+002  2.191744e+001  1.211754e+002 -1.315242e+001  1.413260e+002
5.3950625000e+009  2.862102e+000 -4.750248e+001 -3.046763e+001 -1.117979e+002  2.182502e+001  1.213359e+002 -1.340775e+001  1.414318e+002
5.3951875000e+009  2.712456e+000 -4.871072e+001 -3.047271e+001 -1.119238e+002  2.183079e+001  1.213162e+002 -1.337885e+001  1.403107e+002
5.3953125000e+009  2.753042e+000 -4.862258e+001 -3.081034e+001 -1.151799e+002  2.176548e+001  1.213506e+002 -1.321527e+001  1.416818e+002
5.3954375000e+009  3.186592e+000 -4.975557e+001 -3.016006e+001 -1.131061e+002  2.168769e+001  1.208762e+002 -1.352066e+001  1.421908e+002
5.3955625000e+009  3.150724e+000 -4.990547e+001 -3.023754e+001 -1.112452e+002  2.171569e+001  1.209794e+002 -1.357338e+001  1.415539e+002
5.3956875000e+009  2.774160e+000 -4.977112e+001 -3.037737e+001 -1.128975e+002  2.172534e+001  1.211293e+002 -1.352649e+001  1.421945e+002
5.3958125000e+009  3.351710e+000 -4.997145e+001 -3.017026e+001 -1.175867e+002  2.166663e+001  1.206778e+002 -1.349675e+001  1.440762e+002
5.3959375000e+009  2.913695e+000 -4.962208e+001 -3.037753e+001 -1.135094e+002  2.171531e+001  1.209905e+002 -1.345242e+001  1.426474e+002
5.3960625000e+009  2.804582e+000 -5.092607e+001 -3.024953e+001 -1.118519e+002  2.164860e+001  1.217138e+002 -1.358446e+001  1.419536e+002
5.3961875000e+009  3.230668e+000 -5.062169e+001 -3.007467e+001 -1.163498e+002  2.153016e+001  1.207585e+002 -1.367592e+001  1.431189e+002
5.3963125000e+009  3.217721e+000 -5.102489e+001 -3.008938e+001 -1.158872e+002  2.159414e+001  1.208987e+002 -1.363691e+001  1.438646e+002
5.3964375000e+009  2.961527e+000 -5.183722e+001 -3.031718e+001 -1.177221e+002  2.160558e+001  1.215222e+002 -1.341793e+001  1.441927e+002
5.3965625000e+009  3.290835e+000 -5.046684e+001 -3.047479e+001 -1.125440e+002  2.158109e+001  1.204487e+002 -1.340453e+001  1.415693e+002
5.3966875000e+009  3.510965e+000 -4.997476e+001 -3.056013e+001 -1.109135e+002  2.154295e+001  1.198468e+002 -1.355561e+001  1.413004e+002
5.3968125000e+009  3.403310e+000 -5.191095e+001 -3.017940e+001 -1.104536e+002  2.156301e+001  1.208456e+002 -1.371190e+001  1.420982e+002
5.3969375000e+009  3.532331e+000 -5.223817e+001 -3.042832e+001 -1.140029e+002  2.146260e+001  1.202416e+002 -1.350483e+001  1.429842e+002
5.3970625000e+009  3.556027e+000 -5.246965e+001 -3.016776e+001 -1.167445e+002  2.143506e+001  1.205744e+002 -1.363926e+001  1.441619e+002
5.3971875000e+009  3.541775e+000 -5.211495e+001 -2.964617e+001 -1.185052e+002  2.138510e+001  1.204377e+002 -1.373938e+001  1.449650e+002
5.3973125000e+009  3.707881e+000 -5.242964e+001 -3.012422e+001 -1.167749e+002  2.138582e+001  1.202966e+002 -1.366040e+001  1.436304e+002
5.3974375000e+009  3.583476e+000 -5.239367e+001 -3.061633e+001 -1.151825e+002  2.136299e+001  1.205117e+002 -1.351184e+001  1.434070e+002
5.3975625000e+009  3.671389e+000 -5.283186e+001 -3.031780e+001 -1.145622e+002  2.136486e+001  1.203291e+002 -1.360120e+001  1.430698e+002
5.3976875000e+009  3.768773e+000 -5.235419e+001 -3.008108e+001 -1.198593e+002  2.133367e+001  1.204651e+002 -1.365404e+001  1.455250e+002
5.3978125000e+009  3.650110e+000 -5.533770e+001 -2.987868e+001 -1.171849e+002  2.131464e+001  1.207866e+002 -1.374045e+001  1.450000e+002
5.3979375000e+009  3.890138e+000 -5.333974e+001 -2.988689e+001 -1.168886e+002  2.131018e+001  1.199891e+002 -1.385641e+001  1.446269e+002
5.3980625000e+009  4.114821e+000 -5.403568e+001 -2.954514e+001 -1.143387e+002  2.117830e+001  1.195028e+002 -1.389342e+001  1.433190e+002
5.3981875000e+009  3.727969e+000 -5.395565e+001 -2.969967e+001 -1.139862e+002  2.137476e+001  1.207452e+002 -1.398605e+001  1.440123e+002
5.3983125000e+009  3.968558e+000 -5.430019e+001 -2.986955e+001 -1.210622e+002  2.121038e+001  1.198898e+002 -1.364643e+001  1.455159e+002
5.3984375000e+009  3.651937e+000 -5.572631e+001 -2.991091e+001 -1.215999e+002  2.118219e+001  1.207238e+002 -1.355017e+001  1.448643e+002
5.3985625000e+009  4.080097e+000 -5.515641e+001 -3.016016e+001 -1.158452e+002  2.114903e+001  1.199716e+002 -1.378245e+001  1.428296e+002
5.3986875000e+009  3.858140e+000 -5.498188e+001 -3.006259e+001 -1.216692e+002  2.121206e+001  1.197835e+002 -1.345936e+001  1.444820e+002
5.3988125000e+009  4.153080e+000 -5.407961e+001 -2.924510e+001 -1.194168e+002  2.115277e+001  1.191954e+002 -1.383083e+001  1.450973e+002
5.3989375000e+009  3.796194e+000 -5.632942e+001 -2.973864e+001 -1.179207e+002  2.115548e+001  1.209492e+002 -1.376910e+001  1.448127e+002
5.3990625000e+009  3.947914e+000 -5.608672e+001 -2.927708e+001 -1.171041e+002  2.111743e+001  1.205628e+002 -1.401710e+001  1.450577e+002
5.3991875000e+009  4.242600e+000 -5.615742e+001 -2.984992e+001 -1.170452e+002  2.106834e+001  1.200300e+002 -1.369788e+001  1.433681e+002
5.3993125000e+009  4.181851e+000 -5.690257e+001 -3.001086e+001 -1.195148e+002  2.098619e+001  1.194988e+002 -1.362879e+001  1.442187e+002
5.3994375000e+009  3.820800e+000 -5.748757e+001 -2.978903e+001 -1.220848e+002  2.117508e+001  1.206592e+002 -1.359616e+001  1.451049e+002
5.3995625000e+009  4.713084e+000 -5.495263e+001 -2.955079e+001 -1.257806e+002  2.094498e+001  1.188640e+002 -1.343848e+001  1.463312e+002
5.3996875000e+009  4.402694e+000 -5.796531e+001 -2.939827e+001 -1.229831e+002  2.098360e+001  1.195965e+002 -1.359404e+001  1.455049e+002
5.3998125000e+009  4.099953e+000 -5.851608e+001 -2.968752e+001 -1.235192e+002  2.101270e+001  1.202558e+002 -1.346555e+001  1.446043e+002
5.3999375000e+009  4.594407e+000 -5.733807e+001 -2.949683e+001 -1.224848e+002  2.097001e+001  1.197506e+002 -1.351903e+001  1.453748e+002
5.4000625000e+009  4.791161e+000 -5.744418e+001 -2.923432e+001 -1.221228e+002  2.087305e+001  1.195674e+002 -1.367022e+001  1.455589e+002
5.4001875000e+009  4.430176e+000 -5.710909e+001 -2.921279e+001 -1.243684e+002  2.095023e+001  1.198267e+002 -1.352350e+001  1.460955e+002
5.4003125000e+009  4.509310e+000 -5.693208e+001 -2.954526e+001 -1.253808e+002  2.102082e+001  1.204624e+002 -1.353092e+001  1.457253e+002
5.4004375000e+009  4.591802e+000 -5.788899e+001 -2.923676e+001 -1.246699e+002  2.100392e+001  1.205397e+002 -1.371416e+001  1.463714e+002
5.4005625000e+009  4.251019e+000 -5.947485e+001 -2.967817e+001 -1.286794e+002  2.105849e+001  1.211887e+002 -1.339814e+001  1.463483e+002
5.4006875000e+009  4.628796e+000 -5.876426e+001 -2.950648e+001 -1.252108e+002  2.096330e+001  1.198556e+002 -1.355797e+001  1.455172e+002
5.4008125000e+009  4.603963e+000 -5.953551e+001 -2.965946e+001 -1.261044e+002  2.087997e+001  1.202246e+002 -1.351804e+001  1.454540e+002
5.4009375000e+009  4.603367e+000 -5.928515e+001 -2.991976e+001 -1.245839e+002  2.095424e+001  1.201449e+002 -1.351041e+001  1.447732e+002
5.4010625000e+009  4.783699e+000 -5.971284e+001 -2.937105e+001 -1.211430e+002  2.090570e+001  1.194596e+002 -1.368804e+001  1.452946e+002
5.4011875000e+009  4.549418e+000 -6.122325e+001 -2.896758e+001 -1.280898e+002  2.089950e+001  1.209107e+002 -1.355434e+001  1.472215e+002
5.4013125000e+009  4.492191e+000 -6.185957e+001 -2.926171e+001 -1.242635e+002  2.091146e+001  1.212572e+002 -1.378174e+001  1.466394e+002
5.4014375000e+009  4.729163e+000 -6.107090e+001 -2.940458e+001 -1.265761e+002  2.085431e+001  1.208206e+002 -1.363280e+001  1.468915e+002
5.4015625000e+009  4.722048e+000 -6.127071e+001 -2.917212e+001 -1.284076e+002  2.088757e+001  1.210689e+002 -1.365163e+001  1.472468e+002
5.4016875000e+009  4.587063e+000 -6.320237e+001 -2.867395e+001 -1.263596e+002  2.087675e+001  1.215790e+002 -1.373636e+001  1.487218e+002
5.4018125000e+009  4.728367e+000 -6.216067e+001 -2.949159e+001 -1.285869e+002  2.091411e+001  1.209309e+002 -1.354557e+001  1.466506e+002
5.4019375000e+009  4.581934e+000 -6.350192e+001 -2.889168e+001 -1.257092e+002  2.093292e+001  1.212313e+002 -1.374897e+001  1.476579e+002
5.4020625000e+009  4.754268e+000 -6.371996e+001 -2.928811e+001 -1.278359e+002  2.078079e+001  1.212961e+002 -1.359374e+001  1.469725e+002
5.4021875000e+009  4.728679e+000 -6.245876e+001 -2.912778e+001 -1.262401e+002  2.097845e+001  1.205590e+002 -1.367548e+001  1.470281e+002
5.4023125000e+009  4.681947e+000 -6.418766e+001 -2.964629e+001 -1.275138e+002  2.091895e+001  1.210169e+002 -1.348490e+001  1.465156e+002
5.4024375000e+009  4.655480e+000 -6.499351e+001 -2.948143e+001 -1.307002e+002  2.089632e+001  1.225461e+002 -1.352664e+001  1.472730e+002
5.4025625000e+009  4.671274e+000 -6.417882e+001 -2.828503e+001 -1.267460e+002  2.095417e+001  1.213775e+002 -1.385624e+001  1.488469e+002
5.4026875000e+009  4.800292e+000 -6.568989e+001 -2.947093e+001 -1.316559e+002  2.081365e+001  1.222471e+002 -1.346317e+001  1.475757e+002
5.4028125000e+009  4.681910e+000 -6.644207e+001 -2.943996e+001 -1.314696e+002  2.082114e+001  1.221960e+002 -1.350872e+001  1.472089e+002
5.4029375000e+009  4.806930e+000 -6.517006e+001 -2.863669e+001 -1.312601e+002  2.090193e+001  1.215750e+002 -1.358474e+001  1.490886e+002
5.4030625000e+009  4.939870e+000 -6.658892e+001 -2.926126e+001 -1.320613e+002  2.096346e+001  1.219439e+002 -1.346135e+001  1.481488e+002
5.4031875000e+009  4.703958e+000 -6.888057e+001 -2.926899e+001 -1.331737e+002  2.076965e+001  1.225262e+002 -1.345771e+001  1.471095e+002
5.4033125000e+009  4.933414e+000 -6.757765e+001 -2.956558e+001 -1.318204e+002  2.085209e+001  1.221804e+002 -1.337611e+001  1.468882e+002
5.4034375000e+009  4.915356e+000 -6.601322e+001 -2.932843e+001 -1.314088e+002  2.100452e+001  1.216075e+002 -1.353552e+001  1.477320e+002
5.4035625000e+009  4.839877e+000 -6.916189e+001 -2.927608e+001 -1.300307e+002  2.086333e+001  1.228832e+002 -1.356246e+001  1.468887e+002
5.4036875000e+009  4.959902e+000 -6.851304e+001 -2.907928e+001 -1.361092e+002  2.096869e+001  1.221882e+002 -1.331529e+001  1.483596e+002
5.4038125000e+009  4.922952e+000 -6.788922e+001 -2.825238e+001 -1.334265e+002  2.106786e+001  1.218144e+002 -1.338872e+001  1.503260e+002
5.4039375000e+009  4.865974e+000 -6.988255e+001 -2.880223e+001 -1.359382e+002  2.092839e+001  1.229469e+002 -1.336128e+001  1.481588e+002
5.4040625000e+009  5.011075e+000 -6.792203e+001 -2.881682e+001 -1.365202e+002  2.085491e+001  1.219142e+002 -1.333043e+001  1.482576e+002
5.4041875000e+009  4.986044e+000 -6.954070e+001 -2.905640e+001 -1.321810e+002  2.091475e+001  1.224269e+002 -1.355385e+001  1.470195e+002
5.4043125000e+009  5.004493e+000 -7.103881e+001 -2.880533e+001 -1.314213e+002  2.084411e+001  1.232396e+002 -1.357385e+001  1.470859e+002
5.4044375000e+009  5.037550e+000 -6.948238e+001 -2.820720e+001 -1.355967e+002  2.096206e+001  1.224029e+002 -1.334646e+001  1.492256e+002
5.4045625000e+009  5.151146e+000 -7.048372e+001 -2.885509e+001 -1.372825e+002  2.085362e+001  1.224684e+002 -1.327882e+001  1.475731e+002
5.4046875000e+009  5.067148e+000 -7.193273e+001 -2.898319e+001 -1.403918e+002  2.097306e+001  1.235021e+002 -1.313269e+001  1.469355e+002
5.4048125000e+009  5.033492e+000 -7.117698e+001 -2.867369e+001 -1.353212e+002  2.106673e+001  1.232369e+002 -1.343526e+001  1.476546e+002
5.4049375000e+009  5.121181e+000 -7.114865e+001 -2.925501e+001 -1.379654e+002  2.100678e+001  1.223036e+002 -1.326314e+001  1.465939e+002
5.4050625000e+009  5.203256e+000 -7.277586e+001 -2.879769e+001 -1.372344e+002  2.089922e+001  1.229982e+002 -1.321475e+001  1.473981e+002
5.4051875000e+009  5.104230e+000 -7.256317e+001 -2.906337e+001 -1.383684e+002  2.111702e+001  1.230921e+002 -1.317995e+001  1.467361e+002
5.4053125000e+009  5.225451e+000 -7.318852e+001 -2.944915e+001 -1.376092e+002  2.091032e+001  1.228021e+002 -1.313444e+001  1.452198e+002
5.4054375000e+009  5.292288e+000 -7.386446e+001 -2.855407e+001 -1.411977e+002  2.096492e+001  1.231538e+002 -1.309275e+001  1.466438e+002
5.4055625000e+009  5.262722e+000 -7.409638e+001 -2.874078e+001 -1.403064e+002  2.096997e+001  1.229889e+002 -1.304385e+001  1.464851e+002
5.4056875000e+009  5.228913e+000 -7.462554e+001 -2.818220e+001 -1.367833e+002  2.099791e+001  1.233814e+002 -1.329936e+001  1.471401e+002
5.4058125000e+009  5.257415e+000 -7.442966e+001 -2.848484e+001 -1.445021e+002  2.105966e+001  1.235251e+002 -1.289786e+001  1.463874e+002
5.4059375000e+009  5.275059e+000 -7.512066e+001 -2.812335e+001 -1.416530e+002  2.111079e+001  1.230895e+002 -1.299721e+001  1.476171e+002
5.4060625000e+009  5.318324e+000 -7.494788e+001 -2.883876e+001 -1.458130e+002  2.110080e+001  1.230798e+002 -1.277344e+001  1.456968e+002
5.4061875000e+009  5.329154e+000 -7.610458e+001 -2.921276e+001 -1.397039e+002  2.099886e+001  1.233814e+002 -1.299543e+001  1.441579e+002
5.4063125000e+009  5.383191e+000 -7.574955e+001 -2.853494e+001 -1.418098e+002  2.115880e+001  1.236389e+002 -1.297725e+001  1.457837e+002
5.4064375000e+009  5.388601e+000 -7.681262e+001 -2.815992e+001 -1.438008e+002  2.106499e+001  1.234480e+002 -1.285300e+001  1.461919e+002
5.4065625000e+009  5.398295e+000 -7.779169e+001 -2.819302e+001 -1.432453e+002  2.104743e+001  1.236629e+002 -1.283901e+001  1.454279e+002
5.4066875000e+009  5.402005e+000 -7.788794e+001 -2.790784e+001 -1.397106e+002  2.112654e+001  1.237371e+002 -1.298285e+001  1.463574e+002
5.4068125000e+009  5.486948e+000 -7.703208e+001 -2.796988e+001 -1.441199e+002  2.113805e+001  1.231118e+002 -1.273914e+001  1.460838e+002
5.4069375000e+009  5.456400e+000 -7.824744e+001 -2.840143e+001 -1.485208e+002  2.123932e+001  1.239220e+002 -1.259178e+001  1.441258e+002
5.4070625000e+009  5.440179e+000 -7.869491e+001 -2.841582e+001 -1.437482e+002  2.121756e+001  1.244248e+002 -1.271084e+001  1.442135e+002
5.4071875000e+009  5.527307e+000 -7.917511e+001 -2.887831e+001 -1.486319e+002  2.121038e+001  1.236131e+002 -1.259111e+001  1.435935e+002
5.4073125000e+009  5.523711e+000 -7.922366e+001 -2.825486e+001 -1.474749e+002  2.122454e+001  1.235470e+002 -1.260252e+001  1.437055e+002
5.4074375000e+009  5.525614e+000 -7.966454e+001 -2.806335e+001 -1.453369e+002  2.128821e+001  1.242295e+002 -1.263535e+001  1.441762e+002
5.4075625000e+009  5.589017e+000 -8.063281e+001 -2.918815e+001 -1.476060e+002  2.133167e+001  1.241912e+002 -1.255513e+001  1.414403e+002
5.4076875000e+009  5.642034e+000 -8.100175e+001 -2.903860e+001 -1.442726e+002  2.126910e+001  1.243521e+002 -1.258165e+001  1.416006e+002
5.4078125000e+009  5.601755e+000 -8.071933e+001 -2.799676e+001 -1.426773e+002  2.127201e+001  1.238992e+002 -1.260707e+001  1.430540e+002
5.4079375000e+009  5.697048e+000 -8.121966e+001 -2.861730e+001 -1.432304e+002  2.134001e+001  1.240939e+002 -1.271472e+001  1.419266e+002
5.4080625000e+009  5.647181e+000 -8.117970e+001 -2.788335e+001 -1.444487e+002  2.130441e+001  1.235210e+002 -1.252913e+001  1.430624e+002
5.4081875000e+009  5.801392e+000 -8.267889e+001 -2.804564e+001 -1.517886e+002  2.136747e+001  1.245155e+002 -1.219004e+001  1.418044e+002
5.4083125000e+009  5.795863e+000 -8.221163e+001 -2.805363e+001 -1.452780e+002  2.143953e+001  1.240965e+002 -1.255074e+001  1.412598e+002
5.4084375000e+009  5.850623e+000 -8.191263e+001 -2.834366e+001 -1.500133e+002  2.136531e+001  1.236222e+002 -1.222113e+001  1.409700e+002
5.4085625000e+009  5.818666e+000 -8.229795e+001 -2.815413e+001 -1.447503e+002  2.144303e+001  1.239626e+002 -1.241807e+001  1.413322e+002
5.4086875000e+009  5.823594e+000 -8.269927e+001 -2.842483e+001 -1.446759e+002  2.142647e+001  1.237937e+002 -1.232064e+001  1.402576e+002
5.4088125000e+009  5.819272e+000 -8.406566e+001 -2.852949e+001 -1.498488e+002  2.148381e+001  1.240968e+002 -1.209417e+001  1.393277e+002
5.4089375000e+009  5.864069e+000 -8.409805e+001 -2.842481e+001 -1.503603e+002  2.152019e+001  1.240898e+002 -1.216112e+001  1.393698e+002
5.4090625000e+009  5.890203e+000 -8.409470e+001 -2.830680e+001 -1.434074e+002  2.156111e+001  1.243842e+002 -1.233072e+001  1.390794e+002
5.4091875000e+009  5.882886e+000 -8.364249e+001 -2.826694e+001 -1.496429e+002  2.150809e+001  1.235215e+002 -1.203161e+001  1.389819e+002
5.4093125000e+009  5.951368e+000 -8.524821e+001 -2.802391e+001 -1.523483e+002  2.162785e+001  1.244740e+002 -1.205024e+001  1.383783e+002
5.4094375000e+009  6.014433e+000 -8.440381e+001 -2.895800e+001 -1.455232e+002  2.161381e+001  1.237621e+002 -1.222235e+001  1.376632e+002
5.4095625000e+009  6.012147e+000 -8.473137e+001 -2.847231e+001 -1.481498e+002  2.163204e+001  1.235547e+002 -1.199697e+001  1.375026e+002
5.4096875000e+009  6.024992e+000 -8.522710e+001 -2.804232e+001 -1.504805e+002  2.165208e+001  1.238969e+002 -1.197699e+001  1.379539e+002
5.4098125000e+009  5.945158e+000 -8.578539e+001 -2.872415e+001 -1.529643e+002  2.170900e+001  1.238942e+002 -1.165219e+001  1.365237e+002
5.4099375000e+009  6.074645e+000 -8.599885e+001 -2.862340e+001 -1.529345e+002  2.170987e+001  1.236499e+002 -1.171109e+001  1.364226e+002
5.4100625000e+009  6.086813e+000 -8.592776e+001 -2.831977e+001 -1.515010e+002  2.175877e+001  1.239071e+002 -1.175064e+001  1.365053e+002
5.4101875000e+009  6.113695e+000 -8.611213e+001 -2.881917e+001 -1.490777e+002  2.178715e+001  1.237170e+002 -1.177186e+001  1.355971e+002
5.4103125000e+009  6.218887e+000 -8.603326e+001 -2.864033e+001 -1.460991e+002  2.177794e+001  1.235611e+002 -1.198615e+001  1.356996e+002
5.4104375000e+009  6.234959e+000 -8.556574e+001 -2.864749e+001 -1.525184e+002  2.178634e+001  1.235944e+002 -1.175214e+001  1.353069e+002
5.4105625000e+009  6.193129e+000 -8.712630e+001 -2.809133e+001 -1.559134e+002  2.187245e+001  1.237303e+002 -1.147800e+001  1.353332e+002
5.4106875000e+009  6.277026e+000 -8.646617e+001 -2.821076e+001 -1.550721e+002  2.185094e+001  1.231972e+002 -1.141428e+001  1.348867e+002
5.4108125000e+009  6.154130e+000 -8.744733e+001 -2.890439e+001 -1.529305e+002  2.195428e+001  1.234759e+002 -1.154348e+001  1.342023e+002
5.4109375000e+009  6.510638e+000 -8.737029e+001 -2.786514e+001 -1.532458e+002  2.188609e+001  1.237927e+002 -1.146054e+001  1.341504e+002
5.4110625000e+009  6.341185e+000 -8.676440e+001 -2.847142e+001 -1.539455e+002  2.194259e+001  1.231669e+002 -1.134765e+001  1.338364e+002
5.4111875000e+009  6.300677e+000 -8.791039e+001 -2.848759e+001 -1.577540e+002  2.202335e+001  1.234214e+002 -1.107869e+001  1.334391e+002
5.4113125000e+009  6.557532e+000 -8.748353e+001 -2.820876e+001 -1.550521e+002  2.197549e+001  1.236396e+002 -1.129405e+001  1.329884e+002
5.4114375000e+009  6.565909e+000 -8.843724e+001 -2.811512e+001 -1.527577e+002  2.202319e+001  1.237141e+002 -1.118711e+001  1.338078e+002
5.4115625000e+009  6.389628e+000 -8.943243e+001 -2.773122e+001 -1.567673e+002  2.208256e+001  1.235937e+002 -1.105137e+001  1.344968e+002
5.4116875000e+009  6.565166e+000 -8.851781e+001 -2.819874e+001 -1.546210e+002  2.208369e+001  1.230326e+002 -1.109749e+001  1.313395e+002
5.4118125000e+009  6.259914e+000 -8.802433e+001 -2.871819e+001 -1.527916e+002  2.219048e+001  1.226791e+002 -1.111989e+001  1.317273e+002
5.4119375000e+009  6.278672e+000 -8.756043e+001 -2.770744e+001 -1.521967e+002  2.218900e+001  1.229157e+002 -1.105865e+001  1.342983e+002
5.4120625000e+009  6.581647e+000 -8.922855e+001 -2.828983e+001 -1.542711e+002  2.218000e+001  1.231337e+002 -1.100760e+001  1.308904e+002
5.4121875000e+009  6.454760e+000 -8.783467e+001 -2.793803e+001 -1.558210e+002  2.223391e+001  1.225021e+002 -1.087825e+001  1.316117e+002
5.4123125000e+009  6.912353e+000 -8.811801e+001 -2.769227e+001 -1.527775e+002  2.213806e+001  1.224694e+002 -1.092299e+001  1.312465e+002
5.4124375000e+009  6.534194e+000 -8.960119e+001 -2.793120e+001 -1.573508e+002  2.228716e+001  1.223818e+002 -1.081101e+001  1.298039e+002
5.4125625000e+009  6.685877e+000 -8.940367e+001 -2.820083e+001 -1.541086e+002  2.229581e+001  1.225442e+002 -1.080928e+001  1.309202e+002
5.4126875000e+009  6.663705e+000 -8.794158e+001 -2.728587e+001 -1.537805e+002  2.225386e+001  1.217823e+002 -1.084450e+001  1.299430e+002
5.4128125000e+009  6.746905e+000 -9.014166e+001 -2.746011e+001 -1.563789e+002  2.232270e+001  1.222854e+002 -1.070893e+001  1.296251e+002
5.4129375000e+009  6.748115e+000 -9.029148e+001 -2.738441e+001 -1.562937e+002  2.241043e+001  1.222975e+002 -1.043573e+001  1.302864e+002
5.4130625000e+009  6.569553e+000 -8.975911e+001 -2.822954e+001 -1.556601e+002  2.248543e+001  1.221053e+002 -1.052560e+001  1.291571e+002
5.4131875000e+009  6.649525e+000 -9.072640e+001 -2.804561e+001 -1.588584e+002  2.244669e+001  1.219885e+002 -1.057212e+001  1.289041e+002
5.4133125000e+009  6.431273e+000 -8.967973e+001 -2.743506e+001 -1.572711e+002  2.250400e+001  1.217825e+002 -1.057893e+001  1.309820e+002
5.4134375000e+009  6.587831e+000 -8.992632e+001 -2.897349e+001 -1.559753e+002  2.249762e+001  1.217939e+002 -1.057362e+001  1.292487e+002
5.4135625000e+009  6.327515e+000 -9.078016e+001 -2.810321e+001 -1.578422e+002  2.263626e+001  1.216337e+002 -1.042228e+001  1.296948e+002
5.4136875000e+009  6.202794e+000 -9.067802e+001 -2.810687e+001 -1.577891e+002  2.261672e+001  1.211878e+002 -1.068810e+001  1.285625e+002
5.4138125000e+009  6.508361e+000 -9.261221e+001 -2.856818e+001 -1.609963e+002  2.267495e+001  1.219988e+002 -1.036041e+001  1.290374e+002
5.4139375000e+009  6.594963e+000 -9.193066e+001 -2.798650e+001 -1.579248e+002  2.268904e+001  1.216070e+002 -1.032492e+001  1.287815e+002
5.4140625000e+009  6.402507e+000 -9.316118e+001 -2.855602e+001 -1.608784e+002  2.280018e+001  1.217667e+002 -1.027237e+001  1.290577e+002
5.4141875000e+009  6.593944e+000 -9.232853e+001 -2.827207e+001 -1.638667e+002  2.282435e+001  1.217570e+002 -1.003618e+001  1.289559e+002
5.4143125000e+009  6.663990e+000 -9.325878e+001 -2.770663e+001 -1.598014e+002  2.277042e+001  1.214765e+002 -1.019033e+001  1.290179e+002
5.4144375000e+009  6.282592e+000 -9.332525e+001 -2.802914e+001 -1.641719e+002  2.287642e+001  1.213358e+002 -1.012924e+001  1.293769e+002
5.4145625000e+009  6.656123e+000 -9.244304e+001 -2.885233e+001 -1.601974e+002  2.282338e+001  1.206032e+002 -1.023343e+001  1.265001e+002
5.4146875000e+009  6.296047e+000 -9.284541e+001 -2.884144e+001 -1.607866e+002  2.294195e+001  1.207828e+002 -1.008149e+001  1.277198e+002
5.4148125000e+009  6.164247e+000 -9.343333e+001 -2.890141e+001 -1.652025e+002  2.302379e+001  1.205578e+002 -1.010561e+001  1.274471e+002
5.4149375000e+009  6.220654e+000 -9.394928e+001 -2.823583e+001 -1.664444e+002  2.307220e+001  1.205507e+002 -9.841431e+000  1.272323e+002
5.4150625000e+009  6.619587e+000 -9.449698e+001 -2.799627e+001 -1.619808e+002  2.298861e+001  1.210954e+002 -1.003108e+001  1.288078e+002
5.4151875000e+009  6.410232e+000 -9.521651e+001 -2.805240e+001 -1.643631e+002  2.313525e+001  1.209989e+002 -9.924129e+000  1.284394e+002
5.4153125000e+009  6.578480e+000 -9.655924e+001 -2.824857e+001 -1.639285e+002  2.317794e+001  1.202550e+002 -9.725354e+000  1.264647e+002
5.4154375000e+009  6.065784e+000 -9.591609e+001 -2.847049e+001 -1.621918e+002  2.328404e+001  1.196967e+002 -9.776468e+000  1.265989e+002
5.4155625000e+009  6.050256e+000 -9.681739e+001 -2.809067e+001 -1.620710e+002  2.333746e+001  1.201232e+002 -9.813143e+000  1.279620e+002
5.4156875000e+009  6.272147e+000 -9.690319e+001 -2.812799e+001 -1.635488e+002  2.328868e+001  1.197269e+002 -9.814730e+000  1.266128e+002
5.4158125000e+009  6.452816e+000 -9.530334e+001 -2.844777e+001 -1.661326e+002  2.321873e+001  1.201936e+002 -9.708174e+000  1.276344e+002
5.4159375000e+009  5.644648e+000 -9.729536e+001 -2.855765e+001 -1.682160e+002  2.347300e+001  1.196784e+002 -9.592174e+000  1.274655e+002
5.4160625000e+009  6.207161e+000 -9.658432e+001 -2.905506e+001 -1.661877e+002  2.337725e+001  1.196392e+002 -9.698421e+000  1.261189e+002
5.4161875000e+009  6.289971e+000 -9.705549e+001 -2.810560e+001 -1.643308e+002  2.348043e+001  1.198063e+002 -9.450057e+000  1.276709e+002
5.4163125000e+009  5.609545e+000 -9.804053e+001 -2.892012e+001 -1.706322e+002  2.350356e+001  1.183889e+002 -9.651763e+000  1.249383e+002
5.4164375000e+009  5.897210e+000 -9.789088e+001 -2.876107e+001 -1.653485e+002  2.355099e+001  1.184312e+002 -9.565542e+000  1.258109e+002
5.4165625000e+009  6.017662e+000 -9.720881e+001 -2.846470e+001 -1.693283e+002  2.358189e+001  1.180346e+002 -9.352523e+000  1.249001e+002
5.4166875000e+009  5.780796e+000 -9.894248e+001 -2.843703e+001 -1.712132e+002  2.372231e+001  1.184162e+002 -9.290997e+000  1.254999e+002
5.4168125000e+009  5.999062e+000 -9.871342e+001 -2.908564e+001 -1.651647e+002  2.360832e+001  1.192837e+002 -9.613004e+000  1.272286e+002
5.4169375000e+009  5.973516e+000 -9.744992e+001 -2.801700e+001 -1.651572e+002  2.367399e+001  1.178400e+002 -9.343837e+000  1.259116e+002
5.4170625000e+009  5.765705e+000 -9.917596e+001 -2.855777e+001 -1.673019e+002  2.376639e+001  1.175505e+002 -9.354663e+000  1.249868e+002
5.4171875000e+009  5.814083e+000 -9.951366e+001 -2.838077e+001 -1.703477e+002  2.371262e+001  1.176892e+002 -9.426364e+000  1.249743e+002
5.4173125000e+009  5.903338e+000 -9.781006e+001 -2.811805e+001 -1.644287e+002  2.371582e+001  1.176162e+002 -9.389981e+000  1.263109e+002
5.4174375000e+009  5.884510e+000 -1.010411e+002 -2.858544e+001 -1.698249e+002  2.377813e+001  1.175027e+002 -9.408330e+000  1.246706e+002
5.4175625000e+009  5.926146e+000 -1.000874e+002 -2.886580e+001 -1.708248e+002  2.378699e+001  1.172097e+002 -9.418541e+000  1.243412e+002
5.4176875000e+009  5.665246e+000 -9.921933e+001 -2.893135e+001 -1.649449e+002  2.386908e+001  1.175669e+002 -9.379455e+000  1.263157e+002
5.4178125000e+009  5.744924e+000 -9.973384e+001 -2.844594e+001 -1.738285e+002  2.389389e+001  1.172563e+002 -9.194557e+000  1.250675e+002
5.4179375000e+009  5.710236e+000 -1.002267e+002 -2.839216e+001 -1.696868e+002  2.395377e+001  1.163293e+002 -9.183242e+000  1.243399e+002
5.4180625000e+009  5.702989e+000 -1.001609e+002 -2.822016e+001 -1.722958e+002  2.405905e+001  1.163281e+002 -8.952271e+000  1.245350e+002
5.4181875000e+009  5.477476e+000 -1.017032e+002 -2.883928e+001 -1.714377e+002  2.401511e+001  1.161304e+002 -9.262902e+000  1.236893e+002
5.4183125000e+009  5.618996e+000 -1.021588e+002 -2.902608e+001 -1.747558e+002  2.407557e+001  1.156454e+002 -9.168335e+000  1.226400e+002
5.4184375000e+009  5.624886e+000 -1.017793e+002 -2.837170e+001 -1.731369e+002  2.406387e+001  1.161376e+002 -9.058426e+000  1.244418e+002
5.4185625000e+009  5.536483e+000 -1.018211e+002 -2.873932e+001 -1.729728e+002  2.414009e+001  1.156782e+002 -9.050382e+000  1.238974e+002
5.4186875000e+009  5.566827e+000 -1.018869e+002 -2.847577e+001 -1.718842e+002  2.426954e+001  1.152765e+002 -8.765487e+000  1.236580e+002
5.4188125000e+009  5.834195e+000 -1.008311e+002 -2.843472e+001 -1.703308e+002  2.422762e+001  1.154893e+002 -8.853462e+000  1.239803e+002
5.4189375000e+009  5.608718e+000 -1.037237e+002 -2.848267e+001 -1.730864e+002  2.413059e+001  1.151400e+002 -9.189270e+000  1.231653e+002
5.4190625000e+009  5.607290e+000 -1.032345e+002 -2.870398e+001 -1.753827e+002  2.422344e+001  1.155379e+002 -8.976518e+000  1.236307e+002
5.4191875000e+009  5.659375e+000 -1.031178e+002 -2.873625e+001 -1.729107e+002  2.435190e+001  1.152046e+002 -8.796445e+000  1.239301e+002
5.4193125000e+009  5.377227e+000 -1.044212e+002 -2.949509e+001 -1.743383e+002  2.429689e+001  1.149924e+002 -9.103636e+000  1.233560e+002
5.4194375000e+009  5.423261e+000 -1.043003e+002 -2.879614e+001 -1.700915e+002  2.436437e+001  1.141470e+002 -8.937819e+000  1.229061e+002
5.4195625000e+009  5.575525e+000 -1.036013e+002 -2.835092e+001 -1.736945e+002  2.443354e+001  1.137899e+002 -8.676990e+000  1.225304e+002
5.4196875000e+009  5.436259e+000 -1.048756e+002 -2.849673e+001 -1.760107e+002  2.422572e+001  1.140127e+002 -9.134592e+000  1.223979e+002
5.4198125000e+009  5.265704e+000 -1.057236e+002 -2.900054e+001 -1.753435e+002  2.448764e+001  1.128067e+002 -8.828422e+000  1.212485e+002
5.4199375000e+009  5.680365e+000 -1.036477e+002 -2.924915e+001 -1.766931e+002  2.452780e+001  1.133906e+002 -8.639721e+000  1.214583e+002
5.4200625000e+009  5.411106e+000 -1.059107e+002 -2.963065e+001 -1.772842e+002  2.450073e+001  1.129073e+002 -8.899513e+000  1.207893e+002
5.4201875000e+009  5.455812e+000 -1.054851e+002 -2.924554e+001 -1.768103e+002  2.448153e+001  1.134761e+002 -8.863848e+000  1.219006e+002
5.4203125000e+009  5.363554e+000 -1.044600e+002 -2.874294e+001 -1.753160e+002  2.462539e+001  1.131952e+002 -8.590585e+000  1.225381e+002
5.4204375000e+009  5.202825e+000 -1.058980e+002 -2.904553e+001  1.774552e+002  2.455797e+001  1.125833e+002 -8.739855e+000  1.208134e+002
5.4205625000e+009  5.393867e+000 -1.057528e+002 -2.907725e+001 -1.781792e+002  2.469334e+001  1.117414e+002 -8.587861e+000  1.202726e+002
5.4206875000e+009  5.358722e+000 -1.059314e+002 -2.894072e+001 -1.797763e+002  2.465311e+001  1.114954e+002 -8.638481e+000  1.198506e+002
5.4208125000e+009  5.258123e+000 -1.070745e+002 -2.967152e+001 -1.794645e+002  2.458501e+001  1.120860e+002 -8.914963e+000  1.204530e+002
5.4209375000e+009  5.223839e+000 -1.067014e+002 -2.975041e+001 -1.795749e+002  2.464844e+001  1.110587e+002 -8.827750e+000  1.194558e+002
5.4210625000e+009  5.182749e+000 -1.074163e+002 -2.919276e+001  1.777780e+002  2.485628e+001  1.107387e+002 -8.399510e+000  1.195091e+002
5.4211875000e+009  5.279223e+000 -1.073484e+002 -2.945121e+001 -1.779838e+002  2.475601e+001  1.112153e+002 -8.732672e+000  1.200315e+002
5.4213125000e+009  5.279791e+000 -1.071962e+002 -3.026348e+001 -1.744901e+002  2.473269e+001  1.104946e+002 -8.808003e+000  1.192253e+002
5.4214375000e+009  5.176168e+000 -1.060667e+002 -2.881246e+001 -1.757680e+002  2.486145e+001  1.113614e+002 -8.445157e+000  1.216857e+002
5.4215625000e+009  5.180854e+000 -1.083446e+002 -2.919296e+001 -1.788102e+002  2.489405e+001  1.107929e+002 -8.499889e+000  1.202817e+002
5.4216875000e+009  5.185450e+000 -1.081614e+002 -2.912034e+001 -1.799119e+002  2.478968e+001  1.102555e+002 -8.638495e+000  1.197977e+002
5.4218125000e+009  5.176475e+000 -1.070603e+002 -2.917920e+001 -1.787369e+002  2.502474e+001  1.097347e+002 -8.249061e+000  1.194513e+002
5.4219375000e+009  5.135445e+000 -1.086296e+002 -2.981219e+001 -1.797592e+002  2.482612e+001  1.095702e+002 -8.664666e+000  1.186120e+002
5.4220625000e+009  5.116735e+000 -1.090533e+002 -2.952289e+001  1.789894e+002  2.495568e+001  1.098791e+002 -8.517952e+000  1.193530e+002
5.4221875000e+009  5.089643e+000 -1.081735e+002 -2.893141e+001  1.799957e+002  2.496651e+001  1.094026e+002 -8.395659e+000  1.194939e+002
5.4223125000e+009  5.102107e+000 -1.083026e+002 -2.882446e+001  1.798689e+002  2.489005e+001  1.086252e+002 -8.510000e+000  1.183000e+002
5.4224375000e+009  5.086971e+000 -1.090467e+002 -2.908220e+001  1.763297e+002  2.503660e+001  1.087026e+002 -8.346019e+000  1.184485e+002
5.4225625000e+009  5.124979e+000 -1.082597e+002 -2.919760e+001  1.762155e+002  2.507058e+001  1.085627e+002 -8.283588e+000  1.185391e+002
5.4226875000e+009  5.034785e+000 -1.100391e+002 -2.975791e+001  1.799272e+002  2.511856e+001  1.075111e+002 -8.354262e+000  1.170637e+002
5.4228125000e+009  4.982335e+000 -1.102817e+002 -3.023317e+001  1.731499e+002  2.510637e+001  1.077234e+002 -8.365665e+000  1.174900e+002
5.4229375000e+009  4.998482e+000 -1.095629e+002 -2.923597e+001  1.765014e+002  2.523487e+001  1.080362e+002 -8.106656e+000  1.186768e+002
5.4230625000e+009  4.959291e+000 -1.102456e+002 -2.941896e+001  1.769790e+002  2.523829e+001  1.069168e+002 -8.179324e+000  1.169247e+002
5.4231875000e+009  4.919359e+000 -1.109352e+002 -2.924140e+001  1.739775e+002  2.518845e+001  1.072067e+002 -8.202261e+000  1.176878e+002
5.4233125000e+009  4.960160e+000 -1.097931e+002 -2.934291e+001  1.763793e+002  2.524861e+001  1.075621e+002 -8.144462e+000  1.187087e+002
5.4234375000e+009  4.937514e+000 -1.104725e+002 -2.899542e+001  1.781238e+002  2.523355e+001  1.068583e+002 -8.145979e+000  1.182496e+002
5.4235625000e+009  4.908255e+000 -1.106873e+002 -2.931495e+001  1.776766e+002  2.533007e+001  1.059826e+002 -8.076775e+000  1.166033e+002
5.4236875000e+009  4.905108e+000 -1.105402e+002 -2.948656e+001  1.735446e+002  2.531284e+001  1.068899e+002 -8.069233e+000  1.183445e+002
5.4238125000e+009  4.889946e+000 -1.116063e+002 -3.013613e+001  1.778586e+002  2.532495e+001  1.046625e+002 -8.184220e+000  1.153709e+002
5.4239375000e+009  4.831807e+000 -1.107701e+002 -2.914748e+001  1.763242e+002  2.528096e+001  1.049044e+002 -8.153492e+000  1.158562e+002
5.4240625000e+009  4.897463e+000 -1.113174e+002 -2.958623e+001  1.739077e+002  2.539247e+001  1.049258e+002 -7.991563e+000  1.161370e+002
5.4241875000e+009  4.851355e+000 -1.111016e+002 -2.957449e+001  1.703727e+002  2.536099e+001  1.043262e+002 -8.112801e+000  1.149182e+002
5.4243125000e+009  4.800955e+000 -1.121402e+002 -2.983043e+001  1.749795e+002  2.537542e+001  1.038841e+002 -8.117706e+000  1.149742e+002
5.4244375000e+009  4.822832e+000 -1.115486e+002 -2.999642e+001  1.709700e+002  2.546957e+001  1.041658e+002 -7.985606e+000  1.150899e+002
5.4245625000e+009  4.769578e+000 -1.124056e+002 -2.979043e+001  1.733237e+002  2.546480e+001  1.035918e+002 -8.031019e+000  1.149832e+002
5.4246875000e+009  4.764465e+000 -1.128619e+002 -3.018408e+001  1.734957e+002  2.549233e+001  1.039303e+002 -7.986952e+000  1.163545e+002
5.4248125000e+009  4.786198e+000 -1.123345e+002 -2.978688e+001  1.722412e+002  2.549509e+001  1.037807e+002 -7.961261e+000  1.159397e+002
5.4249375000e+009  4.755058e+000 -1.123971e+002 -2.937264e+001  1.737773e+002  2.559069e+001  1.039285e+002 -7.777546e+000  1.167392e+002
5.4250625000e+009  4.689421e+000 -1.131849e+002 -2.965290e+001  1.767136e+002  2.555582e+001  1.025817e+002 -7.891961e+000  1.152149e+002
5.4251875000e+009  4.695176e+000 -1.128536e+002 -2.930955e+001  1.699455e+002  2.562042e+001  1.027766e+002 -7.782489e+000  1.152899e+002
5.4253125000e+009  4.645372e+000 -1.132846e+002 -2.994369e+001  1.704726e+002  2.562411e+001  1.023443e+002 -7.867043e+000  1.148205e+002
5.4254375000e+009  4.600595e+000 -1.132811e+002 -3.002103e+001  1.707635e+002  2.567277e+001  1.022632e+002 -7.812865e+000  1.149356e+002
5.4255625000e+009  4.644641e+000 -1.136590e+002 -3.029891e+001  1.699258e+002  2.567690e+001  1.024204e+002 -7.820271e+000  1.159766e+002
5.4256875000e+009  4.554076e+000 -1.140021e+002 -3.031257e+001  1.708915e+002  2.572831e+001  1.013923e+002 -7.873926e+000  1.143490e+002
5.4258125000e+009  4.454895e+000 -1.139408e+002 -2.984331e+001  1.715785e+002  2.576357e+001  1.018657e+002 -7.779361e+000  1.156272e+002
5.4259375000e+009  4.492411e+000 -1.138600e+002 -2.919730e+001  1.708917e+002  2.577629e+001  1.012670e+002 -7.738903e+000  1.150914e+002
5.4260625000e+009  4.443171e+000 -1.146926e+002 -3.065770e+001  1.710712e+002  2.584616e+001  1.004778e+002 -7.813951e+000  1.143294e+002
5.4261875000e+009  4.309406e+000 -1.147127e+002 -3.000643e+001  1.726545e+002  2.580901e+001  1.002280e+002 -7.833097e+000  1.143812e+002
5.4263125000e+009  4.284365e+000 -1.154743e+002 -2.988267e+001  1.734527e+002  2.587315e+001  1.003926e+002 -7.786990e+000  1.153539e+002
5.4264375000e+009  4.304181e+000 -1.155160e+002 -2.988682e+001  1.719037e+002  2.586529e+001  9.979733e+001 -7.868462e+000  1.145415e+002
5.4265625000e+009  4.280031e+000 -1.146748e+002 -3.028706e+001  1.670327e+002  2.590193e+001  9.905659e+001 -7.833577e+000  1.132872e+002
5.4266875000e+009  4.185910e+000 -1.155070e+002 -3.029783e+001  1.710546e+002  2.596495e+001  9.920239e+001 -7.846335e+000  1.144880e+002
5.4268125000e+009  4.151631e+000 -1.158846e+002 -3.019290e+001  1.702939e+002  2.594696e+001  9.852586e+001 -7.837881e+000  1.136717e+002
5.4269375000e+009  4.137329e+000 -1.156765e+002 -3.047684e+001  1.678621e+002  2.597857e+001  9.790577e+001 -7.944394e+000  1.127467e+002
5.4270625000e+009  4.157983e+000 -1.161285e+002 -2.979863e+001  1.675722e+002  2.598122e+001  9.858665e+001 -7.891703e+000  1.143716e+002
5.4271875000e+009  4.014626e+000 -1.167260e+002 -2.977978e+001  1.713953e+002  2.603140e+001  9.727516e+001 -7.854550e+000  1.128275e+002
5.4273125000e+009  3.982562e+000 -1.168438e+002 -3.103971e+001  1.671993e+002  2.604708e+001  9.723775e+001 -8.015406e+000  1.131505e+002
5.4274375000e+009  4.020090e+000 -1.178384e+002 -3.037506e+001  1.650040e+002  2.606813e+001  9.678259e+001 -7.983869e+000  1.128912e+002
5.4275625000e+009  3.855452e+000 -1.176976e+002 -3.011340e+001  1.690985e+002  2.609493e+001  9.628530e+001 -7.913604e+000  1.127441e+002
5.4276875000e+009  3.888258e+000 -1.174690e+002 -3.069206e+001  1.674342e+002  2.612179e+001  9.575816e+001 -7.973064e+000  1.122834e+002
5.4278125000e+009  3.856148e+000 -1.170483e+002 -2.985473e+001  1.655762e+002  2.614406e+001  9.610728e+001 -7.982415e+000  1.129586e+002
5.4279375000e+009  3.875711e+000 -1.178588e+002 -3.031000e+001  1.662195e+002  2.614221e+001  9.536810e+001 -8.060100e+000  1.118259e+002
5.4280625000e+009  3.775680e+000 -1.178296e+002 -3.016848e+001  1.640770e+002  2.615503e+001  9.492056e+001 -8.063549e+000  1.117369e+002
5.4281875000e+009  3.816397e+000 -1.183057e+002 -3.022139e+001  1.656675e+002  2.620330e+001  9.478035e+001 -7.990189e+000  1.120343e+002
5.4283125000e+009  3.704773e+000 -1.186375e+002 -3.043975e+001  1.671215e+002  2.621280e+001  9.409026e+001 -8.049644e+000  1.115406e+002
5.4284375000e+009  3.704139e+000 -1.187953e+002 -3.092257e+001  1.656618e+002  2.623536e+001  9.325008e+001 -8.105871e+000  1.105264e+002
5.4285625000e+009  3.827756e+000 -1.197585e+002 -3.107863e+001  1.674084e+002  2.629609e+001  9.354748e+001 -8.126756e+000  1.117991e+002
5.4286875000e+009  3.585268e+000 -1.188314e+002 -3.053123e+001  1.645899e+002  2.627821e+001  9.285368e+001 -8.177334e+000  1.108089e+002
5.4288125000e+009  3.578088e+000 -1.190523e+002 -3.025264e+001  1.644389e+002  2.629720e+001  9.224180e+001 -8.105680e+000  1.097878e+002
5.4289375000e+009  3.606123e+000 -1.197519e+002 -3.056406e+001  1.686758e+002  2.634909e+001  9.206232e+001 -8.135577e+000  1.100987e+002
5.4290625000e+009  3.479061e+000 -1.195806e+002 -3.055278e+001  1.642260e+002  2.633674e+001  9.150972e+001 -8.208986e+000  1.096616e+002
5.4291875000e+009  3.402373e+000 -1.204818e+002 -3.084717e+001  1.641208e+002  2.633959e+001  9.078812e+001 -8.245183e+000  1.094589e+002
5.4293125000e+009  3.539990e+000 -1.204768e+002 -3.060444e+001  1.633308e+002  2.634237e+001  9.066654e+001 -8.316926e+000  1.101595e+002
5.4294375000e+009  3.272362e+000 -1.200898e+002 -3.063071e+001  1.673941e+002  2.638703e+001  9.013157e+001 -8.256001e+000  1.092648e+002
5.4295625000e+009  3.262319e+000 -1.206917e+002 -3.056818e+001  1.624535e+002  2.643277e+001  8.973965e+001 -8.315116e+000  1.084622e+002
5.4296875000e+009  3.418029e+000 -1.215576e+002 -3.145737e+001  1.627536e+002  2.640628e+001  8.932932e+001 -8.407705e+000  1.092933e+002
5.4298125000e+009  3.354953e+000 -1.212098e+002 -3.105577e+001  1.571722e+002  2.647118e+001  8.903579e+001 -8.338761e+000  1.081251e+002
5.4299375000e+009  3.222263e+000 -1.215925e+002 -3.073688e+001  1.600078e+002  2.647746e+001  8.850456e+001 -8.409244e+000  1.076163e+002
5.4300625000e+009  3.337276e+000 -1.220708e+002 -3.104498e+001  1.623571e+002  2.638862e+001  8.828512e+001 -8.482688e+000  1.090563e+002
5.4301875000e+009  3.347854e+000 -1.221459e+002 -3.069625e+001  1.627577e+002  2.643828e+001  8.730711e+001 -8.474028e+000  1.077049e+002
5.4303125000e+009  3.117809e+000 -1.223524e+002 -3.076863e+001  1.595745e+002  2.646603e+001  8.727189e+001 -8.504736e+000  1.069289e+002
5.4304375000e+009  3.287283e+000 -1.231520e+002 -3.151413e+001  1.600805e+002  2.648894e+001  8.630670e+001 -8.567329e+000  1.076360e+002
5.4305625000e+009  3.236758e+000 -1.230854e+002 -3.123742e+001  1.644638e+002  2.651109e+001  8.630415e+001 -8.586114e+000  1.073904e+002
5.4306875000e+009  3.154779e+000 -1.233709e+002 -3.140025e+001  1.618861e+002  2.650779e+001  8.554398e+001 -8.640358e+000  1.065891e+002
5.4308125000e+009  3.204872e+000 -1.231625e+002 -3.034333e+001  1.607287e+002  2.648950e+001  8.501054e+001 -8.620971e+000  1.060725e+002
5.4309375000e+009  3.105076e+000 -1.237320e+002 -3.113435e+001  1.630473e+002  2.655030e+001  8.412794e+001 -8.638432e+000  1.052278e+002
5.4310625000e+009  2.906117e+000 -1.239454e+002 -3.106232e+001  1.560822e+002  2.650058e+001  8.426133e+001 -8.815948e+000  1.051114e+002
5.4311875000e+009  3.018196e+000 -1.241796e+002 -3.135133e+001  1.614861e+002  2.650369e+001  8.388158e+001 -8.768803e+000  1.057367e+002
5.4313125000e+009  3.029136e+000 -1.246241e+002 -3.086885e+001  1.638563e+002  2.656263e+001  8.317759e+001 -8.780330e+000  1.054420e+002
5.4314375000e+009  3.073632e+000 -1.252614e+002 -3.116729e+001  1.607092e+002  2.652938e+001  8.297207e+001 -8.838175e+000  1.047803e+002
5.4315625000e+009  2.980389e+000 -1.249356e+002 -3.106766e+001  1.582307e+002  2.654774e+001  8.202584e+001 -8.945429e+000  1.041671e+002
5.4316875000e+009  3.032346e+000 -1.250227e+002 -3.135590e+001  1.572589e+002  2.656178e+001  8.234035e+001 -8.931125e+000  1.041732e+002
5.4318125000e+009  2.718263e+000 -1.255234e+002 -3.117322e+001  1.582212e+002  2.651209e+001  8.096724e+001 -9.015753e+000  1.028877e+002
5.4319375000e+009  2.976742e+000 -1.255245e+002 -3.080943e+001  1.578233e+002  2.659219e+001  8.034081e+001 -9.066241e+000  1.029950e+002
5.4320625000e+009  2.775477e+000 -1.259109e+002 -3.210857e+001  1.588688e+002  2.659687e+001  7.995082e+001 -9.027666e+000  1.031271e+002
5.4321875000e+009  2.720338e+000 -1.262537e+002 -3.132907e+001  1.572050e+002  2.649161e+001  8.031683e+001 -9.170740e+000  1.029408e+002
5.4323125000e+009  2.896396e+000 -1.261498e+002 -3.093159e+001  1.580516e+002  2.662498e+001  7.922039e+001 -9.182279e+000  1.024447e+002
5.4324375000e+009  2.726067e+000 -1.269323e+002 -3.149713e+001  1.538281e+002  2.662938e+001  7.807275e+001 -9.257426e+000  1.009474e+002
5.4325625000e+009  2.762504e+000 -1.272150e+002 -3.075778e+001  1.580117e+002  2.658557e+001  7.804961e+001 -9.299408e+000  1.009319e+002
5.4326875000e+009  2.766905e+000 -1.273825e+002 -3.107890e+001  1.565819e+002  2.654831e+001  7.649527e+001 -9.416840e+000  1.002570e+002
5.4328125000e+009  2.653009e+000 -1.277595e+002 -3.116890e+001  1.562518e+002  2.666792e+001  7.649251e+001 -9.361621e+000  9.982002e+001
5.4329375000e+009  2.626070e+000 -1.279092e+002 -3.088850e+001  1.553481e+002  2.656267e+001  7.639339e+001 -9.558541e+000  9.965267e+001
5.4330625000e+009  2.658139e+000 -1.281389e+002 -3.123314e+001  1.588458e+002  2.663864e+001  7.619666e+001 -9.454960e+000  1.002225e+002
5.4331875000e+009  2.671440e+000 -1.288315e+002 -3.150448e+001  1.550944e+002  2.650333e+001  7.560305e+001 -9.652810e+000  9.954973e+001
5.4333125000e+009  2.566540e+000 -1.290082e+002 -3.151612e+001  1.568098e+002  2.648750e+001  7.448319e+001 -9.755986e+000  9.806126e+001
5.4334375000e+009  2.586227e+000 -1.287800e+002 -3.105040e+001  1.569806e+002  2.666224e+001  7.420518e+001 -9.558444e+000  9.806803e+001
5.4335625000e+009  2.679056e+000 -1.291268e+002 -3.078006e+001  1.498289e+002  2.643679e+001  7.382544e+001 -9.976741e+000  9.766987e+001
5.4336875000e+009  2.518438e+000 -1.298488e+002 -3.135853e+001  1.546306e+002  2.665022e+001  7.311882e+001 -9.715058e+000  9.714394e+001
5.4338125000e+009  2.519464e+000 -1.298663e+002 -3.122843e+001  1.535608e+002  2.657287e+001  7.263559e+001 -9.890132e+000  9.687210e+001
5.4339375000e+009  2.451842e+000 -1.304886e+002 -3.174933e+001  1.536538e+002  2.643424e+001  7.215398e+001 -1.012940e+001  9.669577e+001
5.4340625000e+009  2.346496e+000 -1.305011e+002 -3.187050e+001  1.569739e+002  2.638194e+001  7.080857e+001 -1.012584e+001  9.529155e+001
5.4341875000e+009  2.407165e+000 -1.309753e+002 -3.175691e+001  1.551018e+002  2.652718e+001  7.014251e+001 -1.012928e+001  9.443560e+001
5.4343125000e+009  2.451182e+000 -1.309317e+002 -3.108471e+001  1.538753e+002  2.635472e+001  7.081931e+001 -1.038988e+001  9.527608e+001
5.4344375000e+009  2.245291e+000 -1.314529e+002 -3.186685e+001  1.553191e+002  2.643842e+001  6.931278e+001 -1.019113e+001  9.406842e+001
5.4345625000e+009  2.376131e+000 -1.316276e+002 -3.107905e+001  1.535816e+002  2.650125e+001  6.837744e+001 -1.033155e+001  9.220072e+001
5.4346875000e+009  2.378243e+000 -1.319893e+002 -3.185668e+001  1.514328e+002  2.634412e+001  6.783605e+001 -1.055407e+001  9.256251e+001
5.4348125000e+009  2.303690e+000 -1.326158e+002 -3.121631e+001  1.492279e+002  2.626992e+001  6.706135e+001 -1.078761e+001  9.156556e+001
5.4349375000e+009  2.291672e+000 -1.330345e+002 -3.220126e+001  1.503077e+002  2.628834e+001  6.634512e+001 -1.077825e+001  9.091188e+001
5.4350625000e+009  2.252834e+000 -1.334988e+002 -3.204061e+001  1.461044e+002  2.614482e+001  6.511922e+001 -1.108166e+001  8.974499e+001
5.4351875000e+009  2.129743e+000 -1.343301e+002 -3.235729e+001  1.487864e+002  2.616738e+001  6.486201e+001 -1.101951e+001  8.951665e+001
5.4353125000e+009  2.232615e+000 -1.336902e+002 -3.175703e+001  1.497466e+002  2.621020e+001  6.489365e+001 -1.119622e+001  8.916704e+001
5.4354375000e+009  2.245521e+000 -1.340841e+002 -3.142642e+001  1.466698e+002  2.620239e+001  6.361476e+001 -1.122118e+001  8.744763e+001
5.4355625000e+009  2.125527e+000 -1.349266e+002 -3.191221e+001  1.468633e+002  2.595358e+001  6.325806e+001 -1.158400e+001  8.773737e+001
5.4356875000e+009  2.127913e+000 -1.347234e+002 -3.214164e+001  1.492110e+002  2.608499e+001  6.269375e+001 -1.145852e+001  8.690694e+001
5.4358125000e+009  2.074773e+000 -1.352569e+002 -3.219995e+001  1.488679e+002  2.599002e+001  6.204755e+001 -1.163349e+001  8.595121e+001
5.4359375000e+009  2.046930e+000 -1.361396e+002 -3.284185e+001  1.436325e+002  2.579135e+001  6.015087e+001 -1.205519e+001  8.360509e+001
5.4360625000e+009  2.017856e+000 -1.364416e+002 -3.215162e+001  1.467825e+002  2.591276e+001  6.070219e+001 -1.191302e+001  8.436926e+001
5.4361875000e+009  2.045877e+000 -1.363442e+002 -3.239665e+001  1.464759e+002  2.585037e+001  5.984887e+001 -1.208329e+001  8.326444e+001
5.4363125000e+009  1.913826e+000 -1.368893e+002 -3.272004e+001  1.456173e+002  2.585890e+001  5.913632e+001 -1.211722e+001  8.217504e+001
5.4364375000e+009  1.966161e+000 -1.369796e+002 -3.268849e+001  1.434445e+002  2.576995e+001  5.892855e+001 -1.237357e+001  8.251622e+001
5.4365625000e+009  1.934016e+000 -1.372050e+002 -3.220446e+001  1.434362e+002  2.573107e+001  5.845926e+001 -1.245649e+001  8.116060e+001
5.4366875000e+009  1.906764e+000 -1.379945e+002 -3.164757e+001  1.413615e+002  2.564234e+001  5.693357e+001 -1.277716e+001  7.880219e+001
5.4368125000e+009  1.842397e+000 -1.387479e+002 -3.248696e+001  1.412196e+002  2.563766e+001  5.712380e+001 -1.282533e+001  7.990617e+001
5.4369375000e+009  1.835816e+000 -1.388328e+002 -3.256178e+001  1.435924e+002  2.545416e+001  5.642648e+001 -1.322450e+001  7.869873e+001
5.4370625000e+009  1.798841e+000 -1.396051e+002 -3.235049e+001  1.349597e+002  2.539804e+001  5.541211e+001 -1.342287e+001  7.747293e+001
5.4371875000e+009  1.764423e+000 -1.395513e+002 -3.223160e+001  1.431082e+002  2.523899e+001  5.502364e+001 -1.368329e+001  7.582071e+001
5.4373125000e+009  1.758200e+000 -1.398389e+002 -3.240723e+001  1.410906e+002  2.515369e+001  5.391663e+001 -1.393280e+001  7.468981e+001
5.4374375000e+009  1.612945e+000 -1.407027e+002 -3.295920e+001  1.414435e+002  2.498648e+001  5.356596e+001 -1.444177e+001  7.334747e+001
5.4375625000e+009  1.664157e+000 -1.406955e+002 -3.281054e+001  1.420205e+002  2.496354e+001  5.254091e+001 -1.456936e+001  7.098927e+001
5.4376875000e+009  1.599261e+000 -1.410069e+002 -3.237666e+001  1.409238e+002  2.493216e+001  5.307812e+001 -1.460904e+001  7.308931e+001
5.4378125000e+009  1.549526e+000 -1.417387e+002 -3.279056e+001  1.416829e+002  2.468870e+001  5.143307e+001 -1.519313e+001  6.859856e+001
5.4379375000e+009  1.551035e+000 -1.423004e+002 -3.277651e+001  1.374463e+002  2.470328e+001  5.110591e+001 -1.538055e+001  6.714679e+001
5.4380625000e+009  1.488875e+000 -1.430409e+002 -3.292245e+001  1.369082e+002  2.456100e+001  5.025521e+001 -1.575131e+001  6.618850e+001
5.4381875000e+009  1.448244e+000 -1.435647e+002 -3.360544e+001  1.383924e+002  2.440108e+001  4.951031e+001 -1.609558e+001  6.370258e+001
5.4383125000e+009  1.430459e+000 -1.441225e+002 -3.272086e+001  1.341199e+002  2.430481e+001  4.919448e+001 -1.654066e+001  6.293023e+001
5.4384375000e+009  1.435227e+000 -1.447486e+002 -3.291546e+001  1.329824e+002  2.415694e+001  4.831693e+001 -1.699144e+001  5.916417e+001
5.4385625000e+009  1.322695e+000 -1.454131e+002 -3.324320e+001  1.356977e+002  2.408385e+001  4.805928e+001 -1.720758e+001  5.771067e+001
5.4386875000e+009  1.377174e+000 -1.459614e+002 -3.344369e+001  1.339548e+002  2.391102e+001  4.758001e+001 -1.778021e+001  5.531118e+001
5.4388125000e+009  1.290230e+000 -1.465755e+002 -3.303356e+001  1.345006e+002  2.380956e+001  4.793394e+001 -1.833414e+001  5.546522e+001
5.4389375000e+009  1.201887e+000 -1.471860e+002 -3.412715e+001  1.305302e+002  2.356353e+001  4.604200e+001 -1.896087e+001  4.927410e+001
5.4390625000e+009  1.151924e+000 -1.474475e+002 -3.418824e+001  1.328334e+002  2.350223e+001  4.663430e+001 -1.931875e+001  4.887078e+001
5.4391875000e+009  1.142005e+000 -1.483020e+002 -3.359924e+001  1.258978e+002  2.326448e+001  4.633962e+001 -2.032595e+001  4.599244e+001
5.4393125000e+009  1.067337e+000 -1.488378e+002 -3.427097e+001  1.265968e+002  2.306940e+001  4.530359e+001 -2.091035e+001  4.035234e+001
5.4394375000e+009  1.043891e+000 -1.493341e+002 -3.416531e+001  1.269592e+002  2.292796e+001  4.553358e+001 -2.153908e+001  3.848307e+001
5.4395625000e+009  1.027854e+000 -1.499206e+002 -3.418886e+001  1.290101e+002  2.281122e+001  4.500197e+001 -2.177449e+001  3.431101e+001
5.4396875000e+009  9.043379e-001 -1.504155e+002 -3.517994e+001  1.301581e+002  2.257375e+001  4.511740e+001 -2.282908e+001  2.867233e+001
5.4398125000e+009  9.269505e-001 -1.508505e+002 -3.429916e+001  1.272644e+002  2.257755e+001  4.537254e+001 -2.312034e+001  2.846330e+001
5.4399375000e+009  8.844845e-001 -1.516195e+002 -3.520135e+001  1.280972e+002  2.238640e+001  4.540997e+001 -2.434289e+001  2.424039e+001
5.4400625000e+009  6.741981e-001 -1.519772e+002 -3.544652e+001  1.248261e+002  2.213037e+001  4.504909e+001 -2.523545e+001  1.320836e+001
5.4401875000e+009  6.138617e-001 -1.521460e+002 -3.579141e+001  1.267196e+002  2.198936e+001  4.538509e+001 -2.603559e+001  7.607210e+000
5.4403125000e+009  6.027235e-001 -1.528634e+002 -3.534636e+001  1.248941e+002  2.182210e+001  4.482638e+001 -2.592244e+001 -5.305817e-001
5.4404375000e+009  5.119602e-001 -1.529249e+002 -3.576860e+001  1.269083e+002  2.152186e+001  4.491581e+001 -2.631231e+001 -1.662177e+001
5.4405625000e+009  5.286060e-001 -1.538100e+002 -3.538585e+001  1.281000e+002  2.132447e+001  4.464008e+001 -2.579519e+001 -2.591293e+001
5.4406875000e+009  3.825002e-001 -1.544308e+002 -3.581002e+001  1.224287e+002  2.120261e+001  4.575634e+001 -2.703451e+001 -3.679631e+001
5.4408125000e+009  3.168014e-001 -1.546489e+002 -3.630315e+001  1.249042e+002  2.096352e+001  4.585366e+001 -2.635570e+001 -4.730020e+001
5.4409375000e+009  2.727278e-001 -1.553079e+002 -3.691027e+001  1.251256e+002  2.087940e+001  4.645413e+001 -2.638202e+001 -5.181341e+001
5.4410625000e+009  1.641925e-001 -1.559794e+002 -3.688077e+001  1.254978e+002  2.066853e+001  4.709793e+001 -2.605244e+001 -6.299949e+001
5.4411875000e+009  4.629317e-002 -1.557500e+002 -3.689877e+001  1.235370e+002  2.048012e+001  4.718800e+001 -2.504697e+001 -7.235765e+001
5.4413125000e+009  7.409393e-002 -1.563812e+002 -3.721171e+001  1.297844e+002  2.027750e+001  4.788718e+001 -2.408684e+001 -7.731787e+001
5.4414375000e+009 -9.894602e-002 -1.565849e+002 -3.731160e+001  1.194224e+002  2.016077e+001  4.852191e+001 -2.412406e+001 -8.244846e+001
5.4415625000e+009 -2.097854e-001 -1.567969e+002 -3.715815e+001  1.186640e+002  1.994586e+001  4.933343e+001 -2.298365e+001 -9.048111e+001
5.4416875000e+009 -1.952412e-001 -1.568029e+002 -3.730555e+001  1.264343e+002  1.982157e+001  4.997963e+001 -2.237129e+001 -8.986915e+001
5.4418125000e+009 -2.898498e-001 -1.579376e+002 -3.807465e+001  1.186638e+002  1.966079e+001  5.118513e+001 -2.187914e+001 -9.851401e+001
5.4419375000e+009 -4.968571e-001 -1.572636e+002 -3.807520e+001  1.333420e+002  1.951721e+001  5.112881e+001 -2.138097e+001 -9.677628e+001
5.4420625000e+009 -3.708986e-001 -1.584121e+002 -3.777380e+001  1.331483e+002  1.939434e+001  5.307790e+001 -2.043487e+001 -1.050022e+002
5.4421875000e+009 -5.081783e-001 -1.579550e+002 -3.805204e+001  1.397866e+002  1.928009e+001  5.349799e+001 -2.028707e+001 -1.049673e+002
5.4423125000e+009 -6.545907e-001 -1.584210e+002 -3.903054e+001  1.239471e+002  1.914920e+001  5.441589e+001 -1.991473e+001 -1.074174e+002
5.4424375000e+009 -6.483717e-001 -1.589077e+002 -3.861745e+001  1.309388e+002  1.904768e+001  5.571065e+001 -1.928210e+001 -1.104451e+002
5.4425625000e+009 -7.663574e-001 -1.591189e+002 -3.906553e+001  1.299544e+002  1.897915e+001  5.648545e+001 -1.910491e+001 -1.115056e+002
5.4426875000e+009 -9.264693e-001 -1.592677e+002 -3.884049e+001  1.227022e+002  1.886328e+001  5.733715e+001 -1.866234e+001 -1.128128e+002
5.4428125000e+009 -9.899687e-001 -1.590812e+002 -3.926755e+001  1.350808e+002  1.877850e+001  5.864183e+001 -1.819465e+001 -1.150527e+002
5.4429375000e+009 -9.303966e-001 -1.594854e+002 -3.839903e+001  1.321693e+002  1.873058e+001  5.974792e+001 -1.767666e+001 -1.184022e+002
5.4430625000e+009 -1.159622e+000 -1.590290e+002 -3.937904e+001  1.397230e+002  1.866019e+001  6.067213e+001 -1.763569e+001 -1.178016e+002
5.4431875000e+009 -1.155984e+000 -1.597770e+002 -3.868440e+001  1.368621e+002  1.866574e+001  6.198896e+001 -1.731824e+001 -1.212609e+002
5.4433125000e+009 -1.238976e+000 -1.597905e+002 -3.992860e+001  1.412633e+002  1.866839e+001  6.302832e+001 -1.698035e+001 -1.234587e+002
5.4434375000e+009 -1.370141e+000 -1.596080e+002 -3.951691e+001  1.421942e+002  1.857803e+001  6.448649e+001 -1.647973e+001 -1.261127e+002
5.4435625000e+009 -1.326467e+000 -1.599698e+002 -4.042968e+001  1.363144e+002  1.858746e+001  6.537270e+001 -1.618120e+001 -1.264005e+002
5.4436875000e+009 -1.325899e+000 -1.609236e+002 -3.935236e+001  1.403913e+002  1.862538e+001  6.641335e+001 -1.610090e+001 -1.288087e+002
5.4438125000e+009 -1.511634e+000 -1.602646e+002 -3.969714e+001  1.358896e+002  1.864582e+001  6.685346e+001 -1.619504e+001 -1.284064e+002
5.4439375000e+009 -1.519748e+000 -1.603726e+002 -3.924831e+001  1.417359e+002  1.868250e+001  6.832858e+001 -1.570940e+001 -1.319426e+002
5.4440625000e+009 -1.506010e+000 -1.607938e+002 -4.109216e+001  1.433349e+002  1.863404e+001  6.972766e+001 -1.509671e+001 -1.334846e+002
5.4441875000e+009 -1.757301e+000 -1.602821e+002 -4.030275e+001  1.492876e+002  1.879662e+001  6.969288e+001 -1.577028e+001 -1.349787e+002
5.4443125000e+009 -1.783205e+000 -1.603656e+002 -3.994555e+001  1.455336e+002  1.877971e+001  7.108571e+001 -1.517343e+001 -1.357909e+002
5.4444375000e+009 -1.751157e+000 -1.605406e+002 -3.934282e+001  1.472831e+002  1.881055e+001  7.211379e+001 -1.466787e+001 -1.365437e+002
5.4445625000e+009 -1.982636e+000 -1.603894e+002 -3.996756e+001  1.481117e+002  1.891973e+001  7.265536e+001 -1.467670e+001 -1.393030e+002
5.4446875000e+009 -1.893535e+000 -1.605429e+002 -3.904298e+001  1.439217e+002  1.888998e+001  7.383250e+001 -1.409577e+001 -1.391738e+002
5.4448125000e+009 -1.956404e+000 -1.604362e+002 -3.950481e+001  1.551336e+002  1.899695e+001  7.426025e+001 -1.420246e+001 -1.404593e+002
5.4449375000e+009 -2.042710e+000 -1.602152e+002 -4.090793e+001  1.508512e+002  1.910844e+001  7.418981e+001 -1.457919e+001 -1.416521e+002
5.4450625000e+009 -1.950520e+000 -1.606112e+002 -3.993519e+001  1.515530e+002  1.918167e+001  7.502431e+001 -1.435730e+001 -1.418427e+002
5.4451875000e+009 -2.104764e+000 -1.605867e+002 -4.021109e+001  1.543153e+002  1.921226e+001  7.600615e+001 -1.371500e+001 -1.437238e+002
5.4453125000e+009 -2.168622e+000 -1.608026e+002 -3.922175e+001  1.521010e+002  1.926851e+001  7.615263e+001 -1.387655e+001 -1.426021e+002
5.4454375000e+009 -2.174266e+000 -1.603326e+002 -3.915660e+001  1.428245e+002  1.932481e+001  7.695871e+001 -1.344336e+001 -1.452204e+002
5.4455625000e+009 -2.119817e+000 -1.607430e+002 -3.951040e+001  1.508255e+002  1.943750e+001  7.687976e+001 -1.383445e+001 -1.455571e+002
5.4456875000e+009 -2.338427e+000 -1.607988e+002 -3.880842e+001  1.538209e+002  1.954903e+001  7.750679e+001 -1.349826e+001 -1.483543e+002
5.4458125000e+009 -2.381345e+000 -1.611060e+002 -3.921676e+001  1.483471e+002  1.961553e+001  7.766918e+001 -1.353917e+001 -1.500040e+002
5.4459375000e+009 -2.417655e+000 -1.603685e+002 -3.908980e+001  1.678362e+002  1.964182e+001  7.879910e+001 -1.279198e+001 -1.492626e+002
5.4460625000e+009 -2.551365e+000 -1.605541e+002 -3.871255e+001  1.597910e+002  1.972455e+001  7.846793e+001 -1.326530e+001 -1.500217e+002
5.4461875000e+009 -2.380630e+000 -1.608114e+002 -3.842230e+001  1.574140e+002  1.987424e+001  7.858134e+001 -1.335107e+001 -1.513210e+002
5.4463125000e+009 -2.346230e+000 -1.607957e+002 -3.786378e+001  1.594203e+002  1.990424e+001  7.896452e+001 -1.317852e+001 -1.507827e+002
5.4464375000e+009 -2.598225e+000 -1.611415e+002 -3.872665e+001  1.538393e+002  2.003494e+001  7.875510e+001 -1.339287e+001 -1.543975e+002
5.4465625000e+009 -2.524766e+000 -1.610909e+002 -3.873449e+001  1.579584e+002  2.007840e+001  7.900863e+001 -1.292556e+001 -1.548538e+002
5.4466875000e+009 -2.555373e+000 -1.610367e+002 -3.868800e+001  1.605519e+002  2.005124e+001  7.990753e+001 -1.252922e+001 -1.508424e+002
5.4468125000e+009 -2.688921e+000 -1.611055e+002 -3.966217e+001  1.640213e+002  2.029998e+001  7.931890e+001 -1.276543e+001 -1.592915e+002
5.4469375000e+009 -2.565447e+000 -1.609573e+002 -3.842662e+001  1.557316e+002  2.030981e+001  7.951556e+001 -1.276604e+001 -1.576746e+002
5.4470625000e+009 -2.561711e+000 -1.609635e+002 -3.866619e+001  1.616825e+002  2.033328e+001  7.985660e+001 -1.252024e+001 -1.561109e+002
5.4471875000e+009 -2.804300e+000 -1.612151e+002 -3.888021e+001  1.600631e+002  2.043611e+001  7.980547e+001 -1.261379e+001 -1.581927e+002
5.4473125000e+009 -2.689445e+000 -1.610504e+002 -3.875819e+001  1.503043e+002  2.054580e+001  7.948901e+001 -1.273019e+001 -1.604646e+002
5.4474375000e+009 -2.634073e+000 -1.612111e+002 -3.877829e+001  1.565203e+002  2.051649e+001  7.995169e+001 -1.211217e+001 -1.583638e+002
5.4475625000e+009 -2.817281e+000 -1.612551e+002 -3.791253e+001  1.548898e+002  2.067188e+001  7.980659e+001 -1.239056e+001 -1.595527e+002
5.4476875000e+009 -2.792222e+000 -1.612616e+002 -3.742369e+001  1.581485e+002  2.073800e+001  7.976138e+001 -1.233907e+001 -1.613697e+002
5.4478125000e+009 -2.837774e+000 -1.613479e+002 -3.759532e+001  1.518237e+002  2.070833e+001  8.008847e+001 -1.195139e+001 -1.600525e+002
5.4479375000e+009 -2.859322e+000 -1.614701e+002 -3.787195e+001  1.586409e+002  2.087238e+001  7.969267e+001 -1.229216e+001 -1.640944e+002
5.4480625000e+009 -2.824039e+000 -1.615991e+002 -3.811398e+001  1.549530e+002  2.098372e+001  7.940186e+001 -1.234594e+001 -1.663072e+002
5.4481875000e+009 -2.743218e+000 -1.608901e+002 -3.717184e+001  1.666312e+002  2.098331e+001  7.940333e+001 -1.206873e+001 -1.649964e+002
5.4483125000e+009 -2.952806e+000 -1.616998e+002 -3.832875e+001  1.563430e+002  2.099476e+001  7.952577e+001 -1.199999e+001 -1.642997e+002
5.4484375000e+009 -2.917957e+000 -1.613554e+002 -3.830164e+001  1.649165e+002  2.111355e+001  7.924512e+001 -1.204951e+001 -1.674242e+002
5.4485625000e+009 -2.875919e+000 -1.614440e+002 -3.658204e+001  1.645312e+002  2.115423e+001  7.917901e+001 -1.207924e+001 -1.668364e+002
5.4486875000e+009 -2.978643e+000 -1.616001e+002 -3.745966e+001  1.637724e+002  2.122599e+001  7.908771e+001 -1.197268e+001 -1.679999e+002
5.4488125000e+009 -2.914149e+000 -1.618298e+002 -3.666824e+001  1.598256e+002  2.126201e+001  7.917252e+001 -1.151325e+001 -1.660603e+002
5.4489375000e+009 -2.889307e+000 -1.614039e+002 -3.704343e+001  1.657744e+002  2.131266e+001  7.902843e+001 -1.167605e+001 -1.675998e+002
5.4490625000e+009 -3.010059e+000 -1.619115e+002 -3.721191e+001  1.613130e+002  2.139762e+001  7.842043e+001 -1.168247e+001 -1.713163e+002
5.4491875000e+009 -3.006368e+000 -1.618591e+002 -3.855880e+001  1.631115e+002  2.143682e+001  7.853103e+001 -1.175441e+001 -1.710790e+002
5.4493125000e+009 -3.048039e+000 -1.621325e+002 -3.719326e+001  1.588194e+002  2.147964e+001  7.823260e+001 -1.157128e+001 -1.704491e+002
5.4494375000e+009 -3.041265e+000 -1.621077e+002 -3.701567e+001  1.587245e+002  2.159454e+001  7.796982e+001 -1.155210e+001 -1.749922e+002
5.4495625000e+009 -3.083479e+000 -1.622395e+002 -3.713227e+001  1.608616e+002  2.163687e+001  7.786541e+001 -1.148189e+001 -1.733710e+002
5.4496875000e+009 -3.016910e+000 -1.621286e+002 -3.639014e+001  1.613235e+002  2.164917e+001  7.779667e+001 -1.147308e+001 -1.722368e+002
5.4498125000e+009 -3.142457e+000 -1.624871e+002 -3.709046e+001  1.627721e+002  2.165744e+001  7.761887e+001 -1.130711e+001 -1.725290e+002
5.4499375000e+009 -3.124066e+000 -1.626980e+002 -3.700587e+001  1.532620e+002  2.177589e+001  7.724255e+001 -1.143278e+001 -1.762069e+002
5.4500625000e+009 -3.090716e+000 -1.625485e+002 -3.771782e+001  1.599673e+002  2.178387e+001  7.736488e+001 -1.130168e+001 -1.745667e+002
5.4501875000e+009 -3.154419e+000 -1.628602e+002 -3.687421e+001  1.653548e+002  2.187696e+001  7.662788e+001 -1.126284e+001 -1.776312e+002
5.4503125000e+009 -3.138941e+000 -1.628163e+002 -3.764135e+001  1.596459e+002  2.186521e+001  7.652531e+001 -1.115743e+001 -1.789825e+002
5.4504375000e+009 -3.141053e+000 -1.627806e+002 -3.668907e+001  1.623936e+002  2.190227e+001  7.660094e+001 -1.131147e+001 -1.733350e+002
5.4505625000e+009 -3.174186e+000 -1.630905e+002 -3.654383e+001  1.589361e+002  2.197927e+001  7.609735e+001 -1.121744e+001 -1.795379e+002
5.4506875000e+009 -3.193907e+000 -1.629938e+002 -3.709314e+001  1.518354e+002  2.201394e+001  7.607397e+001 -1.108291e+001 -1.795869e+002
5.4508125000e+009 -3.170478e+000 -1.626721e+002 -3.672964e+001  1.577399e+002  2.203846e+001  7.609447e+001 -1.122415e+001 -1.787055e+002
5.4509375000e+009 -3.202545e+000 -1.630166e+002 -3.762774e+001  1.605573e+002  2.211318e+001  7.573125e+001 -1.115069e+001  1.770825e+002
5.4510625000e+009 -3.226724e+000 -1.630273e+002 -3.693158e+001  1.502558e+002  2.210479e+001  7.541205e+001 -1.098182e+001  1.793245e+002
5.4511875000e+009 -3.247419e+000 -1.631765e+002 -3.763577e+001  1.540204e+002  2.210214e+001  7.555622e+001 -1.117976e+001  1.752895e+002
5.4513125000e+009 -3.203301e+000 -1.629491e+002 -3.568657e+001  1.601631e+002  2.223023e+001  7.478384e+001 -1.091693e+001  1.769717e+002
5.4514375000e+009 -3.227140e+000 -1.630562e+002 -3.682876e+001  1.517419e+002  2.221448e+001  7.496558e+001 -1.104766e+001  1.765749e+002
5.4515625000e+009 -3.223638e+000 -1.629696e+002 -3.693707e+001  1.599974e+002  2.222979e+001  7.441550e+001 -1.094326e+001  1.764382e+002
5.4516875000e+009 -3.223555e+000 -1.630445e+002 -3.586660e+001  1.537305e+002  2.227730e+001  7.454620e+001 -1.108440e+001  1.778753e+002
5.4518125000e+009 -3.284730e+000 -1.627306e+002 -3.736506e+001  1.619091e+002  2.232368e+001  7.392442e+001 -1.092625e+001  1.746897e+002
5.4519375000e+009 -3.231708e+000 -1.628822e+002 -3.619519e+001  1.587318e+002  2.240624e+001  7.395376e+001 -1.097532e+001  1.758772e+002
5.4520625000e+009 -3.274493e+000 -1.629234e+002 -3.610390e+001  1.635585e+002  2.242244e+001  7.307265e+001 -1.052189e+001  1.720813e+002
5.4521875000e+009 -3.289572e+000 -1.631351e+002 -3.652275e+001  1.548059e+002  2.242625e+001  7.338604e+001 -1.067437e+001  1.724083e+002
5.4523125000e+009 -3.248887e+000 -1.630825e+002 -3.640882e+001  1.605300e+002  2.245866e+001  7.339486e+001 -1.083451e+001  1.731418e+002
5.4524375000e+009 -3.262240e+000 -1.632837e+002 -3.586200e+001  1.594757e+002  2.253352e+001  7.250261e+001 -1.054153e+001  1.716480e+002
5.4525625000e+009 -3.319211e+000 -1.631594e+002 -3.679674e+001  1.589438e+002  2.251623e+001  7.273389e+001 -1.081230e+001  1.708342e+002
5.4526875000e+009 -3.323075e+000 -1.632383e+002 -3.638059e+001  1.531399e+002  2.256220e+001  7.252126e+001 -1.066021e+001  1.717941e+002
5.4528125000e+009 -3.380511e+000 -1.630118e+002 -3.677058e+001  1.591004e+002  2.259272e+001  7.209785e+001 -1.056796e+001  1.694022e+002
5.4529375000e+009 -3.308347e+000 -1.635342e+002 -3.597688e+001  1.560104e+002  2.262739e+001  7.177166e+001 -1.049030e+001  1.687462e+002
5.4530625000e+009 -3.359621e+000 -1.635623e+002 -3.717270e+001  1.603627e+002  2.260950e+001  7.181653e+001 -1.069022e+001  1.694546e+002
5.4531875000e+009 -3.335907e+000 -1.636782e+002 -3.597817e+001  1.521967e+002  2.264663e+001  7.105006e+001 -1.049328e+001  1.678815e+002
5.4533125000e+009 -3.349243e+000 -1.629689e+002 -3.562113e+001  1.564661e+002  2.276339e+001  7.140439e+001 -1.081686e+001  1.697989e+002
5.4534375000e+009 -3.331291e+000 -1.633052e+002 -3.623602e+001  1.625023e+002  2.268572e+001  7.078410e+001 -1.048472e+001  1.660369e+002
5.4535625000e+009 -3.405286e+000 -1.634472e+002 -3.559802e+001  1.619152e+002  2.266620e+001  7.042973e+001 -1.047323e+001  1.653092e+002
5.4536875000e+009 -3.357340e+000 -1.636658e+002 -3.637913e+001  1.569298e+002  2.274568e+001  7.037515e+001 -1.043507e+001  1.649380e+002
5.4538125000e+009 -3.353808e+000 -1.634056e+002 -3.570722e+001  1.617454e+002  2.283676e+001  7.019876e+001 -1.063261e+001  1.668261e+002
5.4539375000e+009 -3.371408e+000 -1.631753e+002 -3.489745e+001  1.591522e+002  2.274263e+001  6.931535e+001 -1.025196e+001  1.632869e+002
5.4540625000e+009 -3.392757e+000 -1.632539e+002 -3.586542e+001  1.553566e+002  2.285091e+001  6.943767e+001 -1.035314e+001  1.641497e+002
5.4541875000e+009 -3.444870e+000 -1.641924e+002 -3.666065e+001  1.537507e+002  2.286714e+001  6.931035e+001 -1.033460e+001  1.634231e+002
5.4543125000e+009 -3.459229e+000 -1.637119e+002 -3.508404e+001  1.572041e+002  2.293493e+001  6.869076e+001 -1.036329e+001  1.633148e+002
5.4544375000e+009 -3.390730e+000 -1.637840e+002 -3.528967e+001  1.538051e+002  2.291544e+001  6.856094e+001 -1.026573e+001  1.618834e+002
5.4545625000e+009 -3.413357e+000 -1.644915e+002 -3.560008e+001  1.545752e+002  2.296965e+001  6.840586e+001 -1.033472e+001  1.622897e+002
5.4546875000e+009 -3.452023e+000 -1.636829e+002 -3.540311e+001  1.606739e+002  2.296649e+001  6.804700e+001 -1.035865e+001  1.611457e+002
5.4548125000e+009 -3.352608e+000 -1.641132e+002 -3.586289e+001  1.605820e+002  2.300746e+001  6.777981e+001 -1.029318e+001  1.602659e+002
5.4549375000e+009 -3.515379e+000 -1.641593e+002 -3.528224e+001  1.575893e+002  2.300427e+001  6.809496e+001 -1.048179e+001  1.600923e+002
5.4550625000e+009 -3.403680e+000 -1.635292e+002 -3.582390e+001  1.534966e+002  2.305100e+001  6.702975e+001 -1.013184e+001  1.588180e+002
5.4551875000e+009 -3.540998e+000 -1.634559e+002 -3.596533e+001  1.578221e+002  2.304050e+001  6.625243e+001 -1.009397e+001  1.573185e+002
5.4553125000e+009 -3.489146e+000 -1.643824e+002 -3.579785e+001  1.603651e+002  2.309034e+001  6.651582e+001 -1.021374e+001  1.576294e+002
5.4554375000e+009 -3.503911e+000 -1.644661e+002 -3.615485e+001  1.541693e+002  2.309508e+001  6.597984e+001 -9.986223e+000  1.570017e+002
5.4555625000e+009 -3.438941e+000 -1.647547e+002 -3.521285e+001  1.545641e+002  2.302137e+001  6.632726e+001 -1.002664e+001  1.563521e+002
5.4556875000e+009 -3.410910e+000 -1.644356e+002 -3.533516e+001  1.547423e+002  2.320746e+001  6.700777e+001 -1.036833e+001  1.569976e+002
5.4558125000e+009 -3.424163e+000 -1.646325e+002 -3.567839e+001  1.585389e+002  2.313881e+001  6.588916e+001 -1.012877e+001  1.554079e+002
5.4559375000e+009 -3.568881e+000 -1.646834e+002 -3.575127e+001  1.562787e+002  2.311270e+001  6.555012e+001 -1.001084e+001  1.546363e+002
5.4560625000e+009 -3.451791e+000 -1.648635e+002 -3.513833e+001  1.624885e+002  2.313419e+001  6.514319e+001 -1.018957e+001  1.543823e+002
5.4561875000e+009 -3.618613e+000 -1.647544e+002 -3.632465e+001  1.534137e+002  2.317131e+001  6.506226e+001 -9.932406e+000  1.528572e+002
5.4563125000e+009 -3.610846e+000 -1.642525e+002 -3.550763e+001  1.539631e+002  2.319337e+001  6.343105e+001 -9.783172e+000  1.517230e+002
5.4564375000e+009 -3.571436e+000 -1.643918e+002 -3.584954e+001  1.565349e+002  2.318057e+001  6.461731e+001 -9.913407e+000  1.521737e+002
5.4565625000e+009 -3.554600e+000 -1.650172e+002 -3.582106e+001  1.554997e+002  2.327405e+001  6.424046e+001 -9.827629e+000  1.509537e+002
5.4566875000e+009 -3.560034e+000 -1.653534e+002 -3.528041e+001  1.531922e+002  2.324718e+001  6.331723e+001 -9.748001e+000  1.511609e+002
5.4568125000e+009 -3.565584e+000 -1.647149e+002 -3.569064e+001  1.558634e+002  2.328741e+001  6.291008e+001 -9.712587e+000  1.500600e+002
5.4569375000e+009 -3.514263e+000 -1.650153e+002 -3.566824e+001  1.576146e+002  2.327802e+001  6.326358e+001 -9.885262e+000  1.498621e+002
5.4570625000e+009 -3.517002e+000 -1.655211e+002 -3.533585e+001  1.527627e+002  2.329852e+001  6.276031e+001 -9.623205e+000  1.494747e+002
5.4571875000e+009 -3.454241e+000 -1.661214e+002 -3.545830e+001  1.540493e+002  2.331969e+001  6.275255e+001 -9.723135e+000  1.487091e+002
5.4573125000e+009 -3.514284e+000 -1.650260e+002 -3.572822e+001  1.566086e+002  2.329578e+001  6.231134e+001 -9.694527e+000  1.475018e+002
5.4574375000e+009 -3.687501e+000 -1.655927e+002 -3.548697e+001  1.534291e+002  2.330345e+001  6.164110e+001 -9.559899e+000  1.470319e+002
5.4575625000e+009 -3.544269e+000 -1.663210e+002 -3.499150e+001  1.515623e+002  2.327415e+001  6.152082e+001 -9.517541e+000  1.471053e+002
5.4576875000e+009 -3.509615e+000 -1.660970e+002 -3.498764e+001  1.533818e+002  2.332728e+001  6.024369e+001 -9.465751e+000  1.456837e+002
5.4578125000e+009 -3.700811e+000 -1.648448e+002 -3.482733e+001  1.519853e+002  2.335127e+001  6.114934e+001 -9.466605e+000  1.459333e+002
5.4579375000e+009 -3.528016e+000 -1.663141e+002 -3.454277e+001  1.586786e+002  2.337469e+001  6.115792e+001 -9.590433e+000  1.450858e+002
5.4580625000e+009 -3.694732e+000 -1.653956e+002 -3.488581e+001  1.537178e+002  2.345536e+001  6.078406e+001 -9.398818e+000  1.442040e+002
5.4581875000e+009 -3.712304e+000 -1.661947e+002 -3.525891e+001  1.525784e+002  2.338323e+001  5.938120e+001 -9.423963e+000  1.432967e+002
5.4583125000e+009 -3.518971e+000 -1.660590e+002 -3.497393e+001  1.506933e+002  2.342921e+001  6.030860e+001 -9.358973e+000  1.431801e+002
5.4584375000e+009 -3.720617e+000 -1.663000e+002 -3.560588e+001  1.457813e+002  2.344110e+001  5.967967e+001 -9.213995e+000  1.422697e+002
5.4585625000e+009 -3.709304e+000 -1.671027e+002 -3.488348e+001  1.504735e+002  2.335391e+001  5.896740e+001 -9.228699e+000  1.424333e+002
5.4586875000e+009 -3.489946e+000 -1.676084e+002 -3.495544e+001  1.502086e+002  2.331774e+001  5.974214e+001 -9.276166e+000  1.424105e+002
5.4588125000e+009 -3.594267e+000 -1.673087e+002 -3.522510e+001  1.540771e+002  2.339089e+001  5.888758e+001 -9.233654e+000  1.408626e+002
5.4589375000e+009 -3.839479e+000 -1.662833e+002 -3.484571e+001  1.510681e+002  2.344601e+001  5.796615e+001 -9.279848e+000  1.402728e+002
5.4590625000e+009 -3.683012e+000 -1.664335e+002 -3.545192e+001  1.560632e+002  2.346361e+001  5.863333e+001 -9.139764e+000  1.394040e+002
5.4591875000e+009 -3.696687e+000 -1.674902e+002 -3.614182e+001  1.478747e+002  2.347666e+001  5.809602e+001 -8.994657e+000  1.384662e+002
5.4593125000e+009 -3.704464e+000 -1.669547e+002 -3.556415e+001  1.497290e+002  2.353527e+001  5.758381e+001 -8.900200e+000  1.379670e+002
5.4594375000e+009 -3.545403e+000 -1.677961e+002 -3.519193e+001  1.464518e+002  2.341316e+001  5.759408e+001 -8.953616e+000  1.384989e+002
5.4595625000e+009 -3.536221e+000 -1.679736e+002 -3.500226e+001  1.531035e+002  2.344788e+001  5.687994e+001 -9.069148e+000  1.369445e+002
5.4596875000e+009 -3.826959e+000 -1.676089e+002 -3.456244e+001  1.497561e+002  2.349759e+001  5.588060e+001 -9.030485e+000  1.360862e+002
5.4598125000e+009 -3.651818e+000 -1.672144e+002 -3.454502e+001  1.469646e+002  2.347588e+001  5.681243e+001 -8.850588e+000  1.364950e+002
5.4599375000e+009 -3.911177e+000 -1.665059e+002 -3.534229e+001  1.530017e+002  2.349929e+001  5.619714e+001 -8.888926e+000  1.353641e+002
5.4600625000e+009 -3.717227e+000 -1.674624e+002 -3.531188e+001  1.528043e+002  2.351895e+001  5.563464e+001 -8.844914e+000  1.345569e+002
5.4601875000e+009 -3.653591e+000 -1.683930e+002 -3.421709e+001  1.475304e+002  2.351784e+001  5.581993e+001 -8.650483e+000  1.356263e+002
5.4603125000e+009 -3.816059e+000 -1.677926e+002 -3.533531e+001  1.502384e+002  2.353074e+001  5.470131e+001 -8.767527e+000  1.332647e+002
5.4604375000e+009 -3.725288e+000 -1.676765e+002 -3.458745e+001  1.524776e+002  2.361986e+001  5.486956e+001 -8.524337e+000  1.330084e+002
5.4605625000e+009 -3.425491e+000 -1.687499e+002 -3.442523e+001  1.498197e+002  2.347721e+001  5.484878e+001 -8.572395e+000  1.335253e+002
5.4606875000e+009 -3.891325e+000 -1.689476e+002 -3.540292e+001  1.471972e+002  2.351860e+001  5.476931e+001 -8.504962e+000  1.324454e+002
5.4608125000e+009 -3.862524e+000 -1.692074e+002 -3.435987e+001  1.522404e+002  2.355176e+001  5.362845e+001 -8.611010e+000  1.310918e+002
5.4609375000e+009 -3.481520e+000 -1.688950e+002 -3.401209e+001  1.500381e+002  2.357295e+001  5.397961e+001 -8.305571e+000  1.314402e+002
5.4610625000e+009 -4.082686e+000 -1.676232e+002 -3.493887e+001  1.438601e+002  2.362002e+001  5.321057e+001 -8.388998e+000  1.296050e+002
5.4611875000e+009 -3.944056e+000 -1.686165e+002 -3.432861e+001  1.505752e+002  2.358584e+001  5.338709e+001 -8.381081e+000  1.308228e+002
5.4613125000e+009 -3.918692e+000 -1.686505e+002 -3.507218e+001  1.473620e+002  2.361702e+001  5.280678e+001 -8.241181e+000  1.290794e+002
5.4614375000e+009 -3.776604e+000 -1.696449e+002 -3.429489e+001  1.438628e+002  2.357990e+001  5.260578e+001 -8.122303e+000  1.296660e+002
5.4615625000e+009 -3.848857e+000 -1.690803e+002 -3.406552e+001  1.474176e+002  2.361740e+001  5.192453e+001 -8.227049e+000  1.283682e+002
5.4616875000e+009 -3.660874e+000 -1.698411e+002 -3.406932e+001  1.469743e+002  2.358204e+001  5.192409e+001 -8.185925e+000  1.279621e+002
5.4618125000e+009 -3.802695e+000 -1.683496e+002 -3.428763e+001  1.446122e+002  2.356411e+001  5.188877e+001 -8.089968e+000  1.281639e+002
5.4619375000e+009 -3.849723e+000 -1.688503e+002 -3.470378e+001  1.509341e+002  2.362367e+001  5.142918e+001 -8.011318e+000  1.266301e+002
5.4620625000e+009 -3.853038e+000 -1.693969e+002 -3.447227e+001  1.443109e+002  2.353595e+001  5.173349e+001 -8.096834e+000  1.276786e+002
5.4621875000e+009 -3.905357e+000 -1.689070e+002 -3.470535e+001  1.473488e+002  2.361317e+001  5.100021e+001 -7.980117e+000  1.256467e+002
5.4623125000e+009 -4.214923e+000 -1.696162e+002 -3.491694e+001  1.485540e+002  2.366031e+001  5.034281e+001 -8.028924e+000  1.236174e+002
5.4624375000e+009 -3.796818e+000 -1.701110e+002 -3.480928e+001  1.503528e+002  2.354326e+001  5.046909e+001 -8.049763e+000  1.254805e+002
5.4625625000e+009 -3.697169e+000 -1.695004e+002 -3.468790e+001  1.451596e+002  2.362042e+001  4.998946e+001 -7.807331e+000  1.243817e+002
5.4626875000e+009 -4.081405e+000 -1.692551e+002 -3.504150e+001  1.478752e+002  2.367533e+001  4.995298e+001 -7.722929e+000  1.235959e+002
5.4628125000e+009 -3.653912e+000 -1.697023e+002 -3.467981e+001  1.456207e+002  2.355770e+001  4.996754e+001 -7.609676e+000  1.246928e+002
5.4629375000e+009 -3.809618e+000 -1.694693e+002 -3.466864e+001  1.480263e+002  2.362185e+001  4.959954e+001 -7.673413e+000  1.247324e+002
5.4630625000e+009 -3.881460e+000 -1.707592e+002 -3.405776e+001  1.435161e+002  2.360768e+001  4.897210e+001 -7.515312e+000  1.231424e+002
5.4631875000e+009 -3.915104e+000 -1.702873e+002 -3.417721e+001  1.496277e+002  2.361786e+001  4.912262e+001 -7.593362e+000  1.241337e+002
5.4633125000e+009 -4.085144e+000 -1.706383e+002 -3.413185e+001  1.432622e+002  2.362599e+001  4.893145e+001 -7.487462e+000  1.239344e+002
5.4634375000e+009 -4.280390e+000 -1.706924e+002 -3.440256e+001  1.419530e+002  2.379707e+001  4.771968e+001 -7.141975e+000  1.195207e+002
5.4635625000e+009 -3.881768e+000 -1.702489e+002 -3.445449e+001  1.450199e+002  2.366257e+001  4.778227e+001 -7.248932e+000  1.215971e+002
5.4636875000e+009 -4.202082e+000 -1.704883e+002 -3.535454e+001  1.470857e+002  2.364105e+001  4.826760e+001 -7.402896e+000  1.234881e+002
5.4638125000e+009 -4.446996e+000 -1.709000e+002 -3.394698e+001  1.430860e+002  2.376404e+001  4.729432e+001 -6.986320e+000  1.201923e+002
5.4639375000e+009 -4.233016e+000 -1.714528e+002 -3.389983e+001  1.392134e+002  2.368403e+001  4.774991e+001 -7.093331e+000  1.238528e+002
5.4640625000e+009 -4.091798e+000 -1.703880e+002 -3.397677e+001  1.433223e+002  2.377355e+001  4.672267e+001 -6.854734e+000  1.209461e+002
5.4641875000e+009 -4.422556e+000 -1.717489e+002 -3.432536e+001  1.471167e+002  2.373213e+001  4.694270e+001 -7.328626e+000  1.199934e+002
5.4643125000e+009 -4.238523e+000 -1.714238e+002 -3.451215e+001  1.457312e+002  2.372657e+001  4.673848e+001 -7.088583e+000  1.208365e+002
5.4644375000e+009 -4.246650e+000 -1.715421e+002 -3.406051e+001  1.371402e+002  2.375450e+001  4.649039e+001 -6.918748e+000  1.209788e+002
5.4645625000e+009 -4.181695e+000 -1.711254e+002 -3.381383e+001  1.436894e+002  2.376349e+001  4.551516e+001 -6.900457e+000  1.182023e+002
5.4646875000e+009 -4.433659e+000 -1.716041e+002 -3.524294e+001  1.422407e+002  2.374514e+001  4.600035e+001 -6.942606e+000  1.197150e+002
5.4648125000e+009 -4.275572e+000 -1.718109e+002 -3.451280e+001  1.444149e+002  2.372878e+001  4.560630e+001 -6.861242e+000  1.202882e+002
5.4649375000e+009 -4.655476e+000 -1.736351e+002 -3.412119e+001  1.420462e+002  2.379681e+001  4.499866e+001 -6.610365e+000  1.170979e+002
5.4650625000e+009 -4.296810e+000 -1.722843e+002 -3.481502e+001  1.440546e+002  2.373887e+001  4.505517e+001 -6.811280e+000  1.183512e+002
5.4651875000e+009 -4.498504e+000 -1.720361e+002 -3.474353e+001  1.424679e+002  2.374685e+001  4.463137e+001 -6.651628e+000  1.188254e+002
5.4653125000e+009 -4.624154e+000 -1.729379e+002 -3.432304e+001  1.408285e+002  2.382121e+001  4.419822e+001 -6.436522e+000  1.153732e+002
5.4654375000e+009 -4.455900e+000 -1.732096e+002 -3.399527e+001  1.411181e+002  2.378138e+001  4.466246e+001 -6.691451e+000  1.200614e+002
5.4655625000e+009 -4.432510e+000 -1.719736e+002 -3.487978e+001  1.444911e+002  2.380601e+001  4.396323e+001 -6.527654e+000  1.177503e+002
5.4656875000e+009 -4.648550e+000 -1.728057e+002 -3.452020e+001  1.448308e+002  2.381347e+001  4.330286e+001 -6.389431e+000  1.151442e+002
5.4658125000e+009 -4.675419e+000 -1.731779e+002 -3.415750e+001  1.378783e+002  2.385185e+001  4.389327e+001 -6.422444e+000  1.183584e+002
5.4659375000e+009 -4.611518e+000 -1.724401e+002 -3.425335e+001  1.379883e+002  2.380704e+001  4.315948e+001 -6.265954e+000  1.171069e+002
5.4660625000e+009 -4.797491e+000 -1.739209e+002 -3.461380e+001  1.409436e+002  2.382369e+001  4.282964e+001 -6.256114e+000  1.152524e+002
5.4661875000e+009 -4.728214e+000 -1.733154e+002 -3.440353e+001  1.396416e+002  2.384309e+001  4.321883e+001 -6.414250e+000  1.167967e+002
5.4663125000e+009 -4.728207e+000 -1.736807e+002 -3.417792e+001  1.423929e+002  2.386621e+001  4.246372e+001 -6.232350e+000  1.174383e+002
5.4664375000e+009 -4.896207e+000 -1.738476e+002 -3.377188e+001  1.415154e+002  2.390209e+001  4.208754e+001 -5.988915e+000  1.151862e+002
5.4665625000e+009 -4.728271e+000 -1.738689e+002 -3.450635e+001  1.398330e+002  2.387990e+001  4.223066e+001 -6.108565e+000  1.161909e+002
5.4666875000e+009 -4.701680e+000 -1.739061e+002 -3.463292e+001  1.393439e+002  2.383308e+001  4.173374e+001 -6.118337e+000  1.154785e+002
5.4668125000e+009 -4.887203e+000 -1.747947e+002 -3.360569e+001  1.406799e+002  2.385041e+001  4.160194e+001 -5.966036e+000  1.145597e+002
5.4669375000e+009 -4.844182e+000 -1.747438e+002 -3.407268e+001  1.389329e+002  2.386597e+001  4.185476e+001 -6.243862e+000  1.168217e+002
5.4670625000e+009 -4.896788e+000 -1.750161e+002 -3.418069e+001  1.388987e+002  2.387928e+001  4.144569e+001 -6.072841e+000  1.163172e+002
5.4671875000e+009 -5.070046e+000 -1.754620e+002 -3.407851e+001  1.384153e+002  2.388405e+001  4.039383e+001 -5.589546e+000  1.134855e+002
5.4673125000e+009 -4.991354e+000 -1.750484e+002 -3.484047e+001  1.398541e+002  2.390372e+001  4.041662e+001 -5.636201e+000  1.135641e+002
5.4674375000e+009 -4.848440e+000 -1.739646e+002 -3.438789e+001  1.414652e+002  2.387895e+001  4.035383e+001 -5.881881e+000  1.142861e+002
5.4675625000e+009 -5.133248e+000 -1.768065e+002 -3.447219e+001  1.364587e+002  2.389672e+001  3.987482e+001 -5.512647e+000  1.130348e+002
5.4676875000e+009 -5.035970e+000 -1.755858e+002 -3.425083e+001  1.407123e+002  2.390624e+001  4.074160e+001 -6.089996e+000  1.145413e+002
5.4678125000e+009 -5.048817e+000 -1.753179e+002 -3.366535e+001  1.405123e+002  2.389441e+001  4.004856e+001 -5.919733e+000  1.150005e+002
5.4679375000e+009 -5.090445e+000 -1.754593e+002 -3.456544e+001  1.383637e+002  2.389075e+001  3.965195e+001 -5.657203e+000  1.128068e+002
5.4680625000e+009 -5.059875e+000 -1.752837e+002 -3.320964e+001  1.381125e+002  2.391039e+001  3.949410e+001 -5.601007e+000  1.136141e+002
5.4681875000e+009 -5.121627e+000 -1.752640e+002 -3.463527e+001  1.381126e+002  2.385766e+001  3.896757e+001 -5.612938e+000  1.118323e+002
5.4683125000e+009 -5.218829e+000 -1.760885e+002 -3.500933e+001  1.387583e+002  2.387154e+001  3.849614e+001 -5.417027e+000  1.106345e+002
5.4684375000e+009 -5.121822e+000 -1.758079e+002 -3.354108e+001  1.380128e+002  2.387235e+001  3.872212e+001 -5.539847e+000  1.126133e+002
5.4685625000e+009 -5.214707e+000 -1.754029e+002 -3.421336e+001  1.348165e+002  2.390080e+001  3.872903e+001 -5.524238e+000  1.118013e+002
5.4686875000e+009 -5.281335e+000 -1.761781e+002 -3.423786e+001  1.390302e+002  2.396795e+001  3.816701e+001 -5.312565e+000  1.120787e+002
5.4688125000e+009 -5.214364e+000 -1.758159e+002 -3.451924e+001  1.401226e+002  2.387212e+001  3.778047e+001 -5.377575e+000  1.112258e+002
5.4689375000e+009 -5.198992e+000 -1.749161e+002 -3.408265e+001  1.396699e+002  2.391955e+001  3.723111e+001 -5.213941e+000  1.111785e+002
5.4690625000e+009 -5.252213e+000 -1.762145e+002 -3.442851e+001  1.388590e+002  2.392537e+001  3.678036e+001 -4.977272e+000  1.105589e+002
5.4691875000e+009 -5.315966e+000 -1.769234e+002 -3.371293e+001  1.349155e+002  2.389348e+001  3.738976e+001 -5.253582e+000  1.108663e+002
5.4693125000e+009 -5.270406e+000 -1.762153e+002 -3.397713e+001  1.397159e+002  2.387523e+001  3.661406e+001 -5.117087e+000  1.100189e+002
5.4694375000e+009 -5.374119e+000 -1.771065e+002 -3.443513e+001  1.370858e+002  2.399263e+001  3.604041e+001 -4.897735e+000  1.108660e+002
5.4695625000e+009 -5.288159e+000 -1.761659e+002 -3.410268e+001  1.398002e+002  2.395923e+001  3.719646e+001 -5.510657e+000  1.117590e+002
5.4696875000e+009 -5.445116e+000 -1.765253e+002 -3.404148e+001  1.376475e+002  2.392244e+001  3.567577e+001 -4.868905e+000  1.097414e+002
5.4698125000e+009 -5.466071e+000 -1.768576e+002 -3.364972e+001  1.363509e+002  2.398855e+001  3.533743e+001 -4.722840e+000  1.104455e+002
5.4699375000e+009 -5.493699e+000 -1.770465e+002 -3.421158e+001  1.392235e+002  2.399244e+001  3.571312e+001 -4.902444e+000  1.104179e+002
5.4700625000e+009 -5.457171e+000 -1.770317e+002 -3.388898e+001  1.353167e+002  2.391955e+001  3.696646e+001 -5.451413e+000  1.104057e+002
5.4701875000e+009 -5.535521e+000 -1.771860e+002 -3.423860e+001  1.369767e+002  2.394543e+001  3.426837e+001 -4.502997e+000  1.088135e+002
5.4703125000e+009 -5.457365e+000 -1.769321e+002 -3.431804e+001  1.423616e+002  2.393897e+001  3.587048e+001 -5.155586e+000  1.094950e+002
5.4704375000e+009 -5.520527e+000 -1.770793e+002 -3.385188e+001  1.381486e+002  2.394732e+001  3.519834e+001 -4.914020e+000  1.096749e+002
5.4705625000e+009 -5.686901e+000 -1.778639e+002 -3.365845e+001  1.343595e+002  2.393499e+001  3.400112e+001 -4.455462e+000  1.088228e+002
5.4706875000e+009 -5.581586e+000 -1.771152e+002 -3.375397e+001  1.396911e+002  2.390904e+001  3.374728e+001 -4.664757e+000  1.087859e+002
5.4708125000e+009 -5.619403e+000 -1.768563e+002 -3.388703e+001  1.355727e+002  2.390083e+001  3.443242e+001 -4.723376e+000  1.083323e+002
5.4709375000e+009 -5.765058e+000 -1.775293e+002 -3.377296e+001  1.331545e+002  2.387967e+001  3.358481e+001 -4.448486e+000  1.079828e+002
5.4710625000e+009 -5.642813e+000 -1.777022e+002 -3.324084e+001  1.359291e+002  2.390265e+001  3.380779e+001 -4.611110e+000  1.086310e+002
5.4711875000e+009 -5.723783e+000 -1.776493e+002 -3.387555e+001  1.333488e+002  2.393684e+001  3.391945e+001 -4.605720e+000  1.082093e+002
5.4713125000e+009 -5.821579e+000 -1.774232e+002 -3.403209e+001  1.341577e+002  2.400096e+001  3.333967e+001 -4.498352e+000  1.084284e+002
5.4714375000e+009 -5.822758e+000 -1.781435e+002 -3.402506e+001  1.304673e+002  2.393098e+001  3.277787e+001 -4.297507e+000  1.072491e+002
5.4715625000e+009 -5.754565e+000 -1.777731e+002 -3.381203e+001  1.339915e+002  2.388209e+001  3.342759e+001 -4.564108e+000  1.073279e+002
5.4716875000e+009 -5.796326e+000 -1.779686e+002 -3.403216e+001  1.314829e+002  2.396899e+001  3.284194e+001 -4.355707e+000  1.075641e+002
5.4718125000e+009 -5.876128e+000 -1.774460e+002 -3.430665e+001  1.279976e+002  2.395856e+001  3.291261e+001 -4.386455e+000  1.072672e+002
5.4719375000e+009 -5.803825e+000 -1.778091e+002 -3.335874e+001  1.353585e+002  2.395440e+001  3.314788e+001 -4.626722e+000  1.081272e+002
5.4720625000e+009 -5.820172e+000 -1.774270e+002 -3.414519e+001  1.364532e+002  2.404797e+001  3.226134e+001 -4.401403e+000  1.076544e+002
5.4721875000e+009 -5.814091e+000 -1.778849e+002 -3.360512e+001  1.342623e+002  2.397825e+001  3.281685e+001 -4.530131e+000  1.078967e+002
5.4723125000e+009 -5.905313e+000 -1.778883e+002 -3.379339e+001  1.311236e+002  2.392550e+001  3.224768e+001 -4.372308e+000  1.064966e+002
5.4724375000e+009 -6.026361e+000 -1.780246e+002 -3.310589e+001  1.314502e+002  2.398743e+001  3.070177e+001 -3.892210e+000  1.072255e+002
5.4725625000e+009 -6.005394e+000 -1.778082e+002 -3.399706e+001  1.317350e+002  2.397955e+001  3.104425e+001 -4.135421e+000  1.064618e+002
5.4726875000e+009 -5.834992e+000 -1.778495e+002 -3.402351e+001  1.393275e+002  2.396625e+001  3.133179e+001 -4.322517e+000  1.067082e+002
5.4728125000e+009 -6.019375e+000 -1.778871e+002 -3.407845e+001  1.354371e+002  2.407767e+001  2.971568e+001 -3.882231e+000  1.071452e+002
5.4729375000e+009 -5.967026e+000 -1.787429e+002 -3.344793e+001  1.376373e+002  2.395695e+001  3.083363e+001 -4.197138e+000  1.066910e+002
5.4730625000e+009 -5.908735e+000 -1.781681e+002 -3.380007e+001  1.324097e+002  2.387961e+001  3.096315e+001 -4.172277e+000  1.055847e+002
5.4731875000e+009 -6.139442e+000 -1.782613e+002 -3.381308e+001  1.344099e+002  2.408337e+001  3.039706e+001 -4.061392e+000  1.067560e+002
5.4733125000e+009 -6.101089e+000 -1.781042e+002 -3.386514e+001  1.311237e+002  2.398078e+001  2.973155e+001 -3.896034e+000  1.057027e+002
5.4734375000e+009 -6.103931e+000 -1.792519e+002 -3.423876e+001  1.290967e+002  2.402052e+001  3.057302e+001 -4.051239e+000  1.056833e+002
5.4735625000e+009 -6.323504e+000 -1.774536e+002 -3.370590e+001  1.322145e+002  2.405863e+001  2.885874e+001 -3.757783e+000  1.059489e+002
5.4736875000e+009 -6.052460e+000 -1.783386e+002 -3.357532e+001  1.347666e+002  2.389508e+001  2.950065e+001 -3.988763e+000  1.052187e+002
5.4738125000e+009 -6.058294e+000 -1.783738e+002 -3.344832e+001  1.295471e+002  2.396569e+001  2.965220e+001 -3.866459e+000  1.055794e+002
5.4739375000e+009 -6.199591e+000 -1.782034e+002 -3.345848e+001  1.315849e+002  2.404650e+001  2.867061e+001 -3.727055e+000  1.059771e+002
5.4740625000e+009 -6.133994e+000 -1.781739e+002 -3.412742e+001  1.319926e+002  2.402794e+001  2.874424e+001 -3.812772e+000  1.050291e+002
5.4741875000e+009 -6.032800e+000 -1.779314e+002 -3.373275e+001  1.323413e+002  2.394865e+001  2.958341e+001 -3.964355e+000  1.050856e+002
5.4743125000e+009 -6.345840e+000 -1.779854e+002 -3.316864e+001  1.337134e+002  2.403163e+001  2.834529e+001 -3.710464e+000  1.056693e+002
5.4744375000e+009 -6.127212e+000 -1.789374e+002 -3.398782e+001  1.323743e+002  2.391741e+001  2.925322e+001 -3.911303e+000  1.041951e+002
5.4745625000e+009 -6.440279e+000 -1.776084e+002 -3.406801e+001  1.327250e+002  2.403979e+001  2.812754e+001 -3.738857e+000  1.048529e+002
5.4746875000e+009 -6.263994e+000 -1.774189e+002 -3.310987e+001  1.339607e+002  2.395985e+001  2.773192e+001 -3.679143e+000  1.051990e+002
5.4748125000e+009 -6.228829e+000 -1.778845e+002 -3.387317e+001  1.275067e+002  2.395737e+001  2.759921e+001 -3.574098e+000  1.038281e+002
5.4749375000e+009 -6.126605e+000 -1.795645e+002 -3.327961e+001  1.336490e+002  2.387476e+001  2.814503e+001 -3.738797e+000  1.043472e+002
5.4750625000e+009 -6.182079e+000 -1.781455e+002 -3.368174e+001  1.380740e+002  2.403899e+001  2.723081e+001 -3.724516e+000  1.050642e+002
5.4751875000e+009 -6.379050e+000 -1.781241e+002 -3.412739e+001  1.269982e+002  2.404057e+001  2.694821e+001 -3.500273e+000  1.038571e+002
5.4753125000e+009 -6.268576e+000 -1.786682e+002 -3.318387e+001  1.323778e+002  2.392793e+001  2.703812e+001 -3.586069e+000  1.042019e+002
5.4754375000e+009 -6.407343e+000 -1.780858e+002 -3.404272e+001  1.284130e+002  2.389683e+001  2.662956e+001 -3.509467e+000  1.030471e+002
5.4755625000e+009 -6.554721e+000 -1.777531e+002 -3.371851e+001  1.310707e+002  2.399633e+001  2.627433e+001 -3.477985e+000  1.039242e+002
5.4756875000e+009 -6.335099e+000 -1.783441e+002 -3.343360e+001  1.342128e+002  2.393046e+001  2.672132e+001 -3.582033e+000  1.041756e+002
5.4758125000e+009 -6.582800e+000 -1.789318e+002 -3.317551e+001  1.319318e+002  2.405617e+001  2.585624e+001 -3.404518e+000  1.046724e+002
5.4759375000e+009 -6.845563e+000 -1.784922e+002 -3.303508e+001  1.287223e+002  2.398927e+001  2.652156e+001 -3.479939e+000  1.040984e+002
5.4760625000e+009 -6.215846e+000 -1.799186e+002 -3.250845e+001  1.286637e+002  2.378140e+001  2.683362e+001 -3.502125e+000  1.039914e+002
5.4761875000e+009 -6.506253e+000  1.794417e+002 -3.265843e+001  1.284302e+002  2.389470e+001  2.576765e+001 -3.333494e+000  1.042914e+002
5.4763125000e+009 -6.906427e+000 -1.793775e+002 -3.418170e+001  1.298193e+002  2.391401e+001  2.638453e+001 -3.567406e+000  1.030914e+002
5.4764375000e+009 -6.524490e+000  1.798352e+002 -3.451194e+001  1.230775e+002  2.372941e+001  2.646878e+001 -3.459731e+000  1.018228e+002
5.4765625000e+009 -7.032047e+000 -1.798106e+002 -3.436537e+001  1.293903e+002  2.394913e+001  2.585510e+001 -3.482567e+000  1.028300e+002
5.4766875000e+009 -7.248930e+000 -1.796570e+002 -3.358926e+001  1.286030e+002  2.402936e+001  2.474028e+001 -3.306992e+000  1.034417e+002
5.4768125000e+009 -6.384315e+000  1.774817e+002 -3.323857e+001  1.305340e+002  2.371183e+001  2.569570e+001 -3.427567e+000  1.031932e+002
5.4769375000e+009 -7.032990e+000  1.788128e+002 -3.395543e+001  1.250415e+002  2.395253e+001  2.540138e+001 -3.355819e+000  1.029785e+002
5.4770625000e+009 -6.558556e+000  1.778228e+002 -3.328148e+001  1.274983e+002  2.385355e+001  2.530225e+001 -3.350709e+000  1.033216e+002
5.4771875000e+009 -6.625618e+000  1.792917e+002 -3.427176e+001  1.271489e+002  2.394733e+001  2.470724e+001 -3.343326e+000  1.031470e+002
5.4773125000e+009 -7.201644e+000  1.773558e+002 -3.321339e+001  1.250377e+002  2.399608e+001  2.446983e+001 -3.184225e+000  1.034464e+002
5.4774375000e+009 -6.828271e+000  1.789778e+002 -3.317361e+001  1.283579e+002  2.386215e+001  2.417384e+001 -3.264675e+000  1.034961e+002
5.4775625000e+009 -6.736035e+000  1.785014e+002 -3.368707e+001  1.281786e+002  2.376119e+001  2.447871e+001 -3.378305e+000  1.027120e+002
5.4776875000e+009 -6.791904e+000  1.778068e+002 -3.300695e+001  1.286215e+002  2.384541e+001  2.396695e+001 -3.235856e+000  1.033699e+002
5.4778125000e+009 -7.233273e+000  1.768795e+002 -3.380948e+001  1.227939e+002  2.387966e+001  2.403054e+001 -3.209340e+000  1.024246e+002
5.4779375000e+009 -6.828527e+000  1.777280e+002 -3.323622e+001  1.244447e+002  2.371305e+001  2.410588e+001 -3.234139e+000  1.026208e+002
5.4780625000e+009 -7.133610e+000  1.769486e+002 -3.278962e+001  1.254892e+002  2.384084e+001  2.351033e+001 -3.131666e+000  1.033567e+002
5.4781875000e+009 -7.250180e+000  1.760387e+002 -3.394175e+001  1.269238e+002  2.375731e+001  2.383245e+001 -3.278874e+000  1.022673e+002
5.4783125000e+009 -7.200196e+000  1.771409e+002 -3.366285e+001  1.269566e+002  2.376775e+001  2.350280e+001 -3.277605e+000  1.023837e+002
5.4784375000e+009 -7.345051e+000  1.754891e+002 -3.334152e+001  1.272453e+002  2.391916e+001  2.336713e+001 -3.190804e+000  1.030714e+002
5.4785625000e+009 -7.114752e+000  1.777716e+002 -3.363255e+001  1.234020e+002  2.379113e+001  2.328686e+001 -3.184159e+000  1.022112e+002
5.4786875000e+009 -7.045758e+000  1.756834e+002 -3.384888e+001  1.280395e+002  2.370398e+001  2.321406e+001 -3.295649e+000  1.021511e+002
5.4788125000e+009 -7.333841e+000  1.757751e+002 -3.436436e+001  1.257683e+002  2.385441e+001  2.301156e+001 -3.255720e+000  1.019938e+002
5.4789375000e+009 -7.660022e+000  1.750072e+002 -3.397536e+001  1.231769e+002  2.377598e+001  2.287977e+001 -3.213459e+000  1.018060e+002
5.4790625000e+009 -6.952793e+000  1.771603e+002 -3.421262e+001  1.293281e+002  2.360962e+001  2.283264e+001 -3.364923e+000  1.019769e+002
5.4791875000e+009 -7.453321e+000  1.740674e+002 -3.242124e+001  1.215304e+002  2.374873e+001  2.286842e+001 -3.037920e+000  1.026484e+002
5.4793125000e+009 -7.582653e+000  1.752635e+002 -3.359167e+001  1.243331e+002  2.368235e+001  2.232286e+001 -3.179418e+000  1.017410e+002
5.4794375000e+009 -7.097136e+000  1.766490e+002 -3.341740e+001  1.233071e+002  2.364627e+001  2.220491e+001 -3.139551e+000  1.018229e+002
5.4795625000e+009 -7.215059e+000  1.742694e+002 -3.330997e+001  1.246998e+002  2.370077e+001  2.227178e+001 -3.161766e+000  1.021028e+002
5.4796875000e+009 -7.519974e+000  1.744059e+002 -3.333034e+001  1.196411e+002  2.375429e+001  2.215836e+001 -3.054044e+000  1.019935e+002
5.4798125000e+009 -7.365426e+000  1.771084e+002 -3.319576e+001  1.234175e+002  2.364263e+001  2.164510e+001 -3.143480e+000  1.018890e+002
5.4799375000e+009 -7.893247e+000  1.736802e+002 -3.343861e+001  1.244057e+002  2.374294e+001  2.182928e+001 -3.161975e+000  1.016852e+002
5.4800625000e+009 -7.651353e+000  1.743076e+002 -3.305344e+001  1.227886e+002  2.373799e+001  2.181010e+001 -3.093541e+000  1.020576e+002
5.4801875000e+009 -7.225580e+000  1.750943e+002 -3.318961e+001  1.273064e+002  2.359622e+001  2.159620e+001 -3.197632e+000  1.023474e+002
5.4803125000e+009 -7.768324e+000  1.721168e+002 -3.296128e+001  1.224803e+002  2.369543e+001  2.159989e+001 -3.058197e+000  1.021076e+002
5.4804375000e+009 -7.802109e+000  1.718597e+002 -3.296455e+001  1.234497e+002  2.367740e+001  2.158613e+001 -3.088216e+000  1.019640e+002
5.4805625000e+009 -7.382112e+000  1.767505e+002 -3.398987e+001  1.250159e+002  2.355772e+001  2.070208e+001 -3.195430e+000  1.014716e+002
5.4806875000e+009 -7.884072e+000  1.744657e+002 -3.368438e+001  1.198692e+002  2.372380e+001  2.096149e+001 -3.053194e+000  1.011305e+002
5.4808125000e+009 -8.021627e+000  1.729868e+002 -3.390857e+001  1.165581e+002  2.368985e+001  2.101380e+001 -3.069145e+000  1.006475e+002
5.4809375000e+009 -7.427210e+000  1.740898e+002 -3.415358e+001  1.182726e+002  2.360325e+001  2.070325e+001 -3.110210e+000  1.006078e+002
5.4810625000e+009 -7.555233e+000  1.747953e+002 -3.432763e+001  1.227468e+002  2.356490e+001  2.038853e+001 -3.205205e+000  1.008206e+002
5.4811875000e+009 -7.816712e+000  1.743683e+002 -3.390752e+001  1.153289e+002  2.358042e+001  2.015067e+001 -3.033537e+000  9.992466e+001
5.4813125000e+009 -7.538130e+000  1.756810e+002 -3.408804e+001  1.161004e+002  2.354770e+001  2.021525e+001 -3.125197e+000  1.002875e+002
5.4814375000e+009 -7.688685e+000  1.754099e+002 -3.309834e+001  1.210263e+002  2.352321e+001  1.981297e+001 -3.082276e+000  1.013727e+002
5.4815625000e+009 -8.104294e+000  1.715717e+002 -3.395906e+001  1.174409e+002  2.362740e+001  2.027012e+001 -3.115660e+000  1.003194e+002
5.4816875000e+009 -7.575310e+000  1.737888e+002 -3.335611e+001  1.163981e+002  2.353337e+001  1.980856e+001 -3.036007e+000  1.006259e+002
5.4818125000e+009 -8.226087e+000  1.716517e+002 -3.339790e+001  1.147370e+002  2.357102e+001  1.969848e+001 -3.022349e+000  1.000420e+002
5.4819375000e+009 -7.821802e+000  1.713969e+002 -3.397660e+001  1.130739e+002  2.357832e+001  1.995952e+001 -3.073214e+000  9.965125e+001
5.4820625000e+009 -7.715277e+000  1.729120e+002 -3.297955e+001  1.230299e+002  2.347563e+001  1.951933e+001 -3.129407e+000  1.014070e+002
5.4821875000e+009 -7.996001e+000  1.717708e+002 -3.327915e+001  1.171170e+002  2.359291e+001  1.935488e+001 -3.018844e+000  1.006611e+002
5.4823125000e+009 -7.987850e+000  1.713686e+002 -3.392699e+001  1.156738e+002  2.356823e+001  1.932146e+001 -3.045231e+000  9.983166e+001
5.4824375000e+009 -7.913681e+000  1.715836e+002 -3.350125e+001  1.151730e+002  2.351298e+001  1.931823e+001 -3.067186e+000  9.990505e+001
5.4825625000e+009 -7.924834e+000  1.677783e+002 -3.321030e+001  1.205176e+002  2.352377e+001  1.968196e+001 -3.146320e+000  1.010088e+002
5.4826875000e+009 -7.877121e+000  1.698661e+002 -3.433552e+001  1.202058e+002  2.347899e+001  1.925565e+001 -3.230878e+000  9.976922e+001
5.4828125000e+009 -7.986887e+000  1.732513e+002 -3.307494e+001  1.194447e+002  2.346419e+001  1.888075e+001 -3.107313e+000  1.007009e+002
5.4829375000e+009 -8.044962e+000  1.693152e+002 -3.349236e+001  1.194112e+002  2.349780e+001  1.880217e+001 -3.091596e+000  1.000699e+002
5.4830625000e+009 -8.194234e+000  1.709561e+002 -3.385776e+001  1.182131e+002  2.352367e+001  1.840306e+001 -3.138750e+000  9.994508e+001
5.4831875000e+009 -8.234830e+000  1.722270e+002 -3.379371e+001  1.151143e+002  2.349419e+001  1.842607e+001 -3.148108e+000  9.964698e+001
5.4833125000e+009 -8.208036e+000  1.671770e+002 -3.324230e+001  1.188672e+002  2.348836e+001  1.854559e+001 -3.054713e+000  1.000852e+002
5.4834375000e+009 -8.219404e+000  1.668636e+002 -3.383856e+001  1.156116e+002  2.349250e+001  1.847908e+001 -3.116561e+000  9.935061e+001
5.4835625000e+009 -8.126475e+000  1.733763e+002 -3.262555e+001  1.123751e+002  2.344392e+001  1.747118e+001 -2.916050e+000  9.958552e+001
5.4836875000e+009 -7.880644e+000  1.707164e+002 -3.327994e+001  1.184580e+002  2.344502e+001  1.787439e+001 -3.120739e+000  1.002307e+002
5.4838125000e+009 -8.113333e+000  1.697576e+002 -3.358708e+001  1.173569e+002  2.342755e+001  1.751205e+001 -3.127424e+000  9.961797e+001
5.4839375000e+009 -8.011856e+000  1.729351e+002 -3.419136e+001  1.165231e+002  2.340121e+001  1.715491e+001 -3.223420e+000  9.924957e+001
5.4840625000e+009 -8.539616e+000  1.685185e+002 -3.365427e+001  1.118106e+002  2.349980e+001  1.737749e+001 -3.082705e+000  9.882370e+001
5.4841875000e+009 -7.892161e+000  1.687553e+002 -3.288768e+001  1.134237e+002  2.339581e+001  1.722285e+001 -2.982623e+000  9.912485e+001
5.4843125000e+009 -8.173094e+000  1.708270e+002 -3.288752e+001  1.100004e+002  2.339595e+001  1.713423e+001 -3.027242e+000  9.897961e+001
5.4844375000e+009 -8.344386e+000  1.680864e+002 -3.306915e+001  1.199675e+002  2.345267e+001  1.712773e+001 -3.113241e+000  1.001786e+002
5.4845625000e+009 -8.403992e+000  1.676029e+002 -3.336248e+001  1.189460e+002  2.342781e+001  1.697091e+001 -3.128138e+000  9.952021e+001
5.4846875000e+009 -8.160452e+000  1.716364e+002 -3.362993e+001  1.150242e+002  2.335837e+001  1.691235e+001 -3.244924e+000  9.914179e+001
5.4848125000e+009 -8.285778e+000  1.657432e+002 -3.373500e+001  1.096194e+002  2.340549e+001  1.672993e+001 -3.085047e+000  9.799133e+001
5.4849375000e+009 -8.514593e+000  1.645292e+002 -3.320501e+001  1.122099e+002  2.340518e+001  1.661960e+001 -3.047839e+000  9.834721e+001
5.4850625000e+009 -8.328893e+000  1.692372e+002 -3.244003e+001  1.078018e+002  2.334132e+001  1.604930e+001 -2.895660e+000  9.804956e+001
5.4851875000e+009 -8.510435e+000  1.669066e+002 -3.365918e+001  1.151261e+002  2.339164e+001  1.618384e+001 -3.172349e+000  9.857373e+001
5.4853125000e+009 -8.326459e+000  1.621889e+002 -3.337703e+001  1.110783e+002  2.329584e+001  1.657784e+001 -3.087281e+000  9.757862e+001
5.4854375000e+009 -8.572702e+000  1.692702e+002 -3.340100e+001  1.092767e+002  2.331211e+001  1.552190e+001 -3.081733e+000  9.749031e+001
5.4855625000e+009 -8.271292e+000  1.685070e+002 -3.295751e+001  1.152755e+002  2.331610e+001  1.534880e+001 -3.072296e+000  9.868123e+001
5.4856875000e+009 -8.381415e+000  1.631891e+002 -3.364864e+001  1.095212e+002  2.331046e+001  1.642950e+001 -3.209130e+000  9.738483e+001
5.4858125000e+009 -8.524432e+000  1.688615e+002 -3.261337e+001  1.110230e+002  2.332867e+001  1.567877e+001 -3.083556e+000  9.820372e+001
5.4859375000e+009 -8.576043e+000  1.632667e+002 -3.234517e+001  1.127615e+002  2.336283e+001  1.669382e+001 -3.141927e+000  9.860101e+001
5.4860625000e+009 -8.811563e+000  1.651292e+002 -3.321620e+001  1.056258e+002  2.332010e+001  1.579071e+001 -3.164019e+000  9.672328e+001
5.4861875000e+009 -8.437901e+000  1.632475e+002 -3.385250e+001  1.081571e+002  2.330374e+001  1.628211e+001 -3.305093e+000  9.700793e+001
5.4863125000e+009 -8.637993e+000  1.645740e+002 -3.413883e+001  1.111346e+002  2.329580e+001  1.525913e+001 -3.306454e+000  9.705366e+001
5.4864375000e+009 -8.824800e+000  1.628475e+002 -3.258610e+001  1.011885e+002  2.334117e+001  1.512891e+001 -3.024767e+000  9.616312e+001
5.4865625000e+009 -8.598850e+000  1.688037e+002 -3.291965e+001  1.143128e+002  2.325686e+001  1.452174e+001 -3.183099e+000  9.801303e+001
5.4866875000e+009 -8.648206e+000  1.624815e+002 -3.346389e+001  1.072623e+002  2.321415e+001  1.560622e+001 -3.301057e+000  9.626440e+001
5.4868125000e+009 -9.036570e+000  1.649059e+002 -3.282492e+001  1.096974e+002  2.338890e+001  1.478993e+001 -3.178860e+000  9.753452e+001
5.4869375000e+009 -8.831853e+000  1.654799e+002 -3.344894e+001  1.069856e+002  2.323248e+001  1.475221e+001 -3.276704e+000  9.633907e+001
5.4870625000e+009 -8.764112e+000  1.629328e+002 -3.344285e+001  1.087307e+002  2.328573e+001  1.530560e+001 -3.357885e+000  9.666092e+001
5.4871875000e+009 -8.749522e+000  1.610392e+002 -3.386951e+001  1.070613e+002  2.330632e+001  1.406443e+001 -3.255840e+000  9.613779e+001
5.4873125000e+009 -8.739489e+000  1.637701e+002 -3.304799e+001  1.093204e+002  2.321195e+001  1.452749e+001 -3.287534e+000  9.643979e+001
5.4874375000e+009 -8.760132e+000  1.617119e+002 -3.325848e+001  1.061961e+002  2.325935e+001  1.469730e+001 -3.316398e+000  9.611945e+001
5.4875625000e+009 -8.904795e+000  1.611181e+002 -3.274849e+001  1.090954e+002  2.340568e+001  1.351521e+001 -3.131353e+000  9.719719e+001
5.4876875000e+009 -8.846201e+000  1.662502e+002 -3.442490e+001  1.053274e+002  2.328022e+001  1.368447e+001 -3.472332e+000  9.590807e+001
5.4878125000e+009 -8.613187e+000  1.608753e+002 -3.309676e+001  1.087307e+002  2.321202e+001  1.386766e+001 -3.279573e+000  9.602892e+001
5.4879375000e+009 -8.862566e+000  1.616537e+002 -3.341594e+001  1.111360e+002  2.336200e+001  1.259825e+001 -3.225193e+000  9.675439e+001
5.4880625000e+009 -8.916298e+000  1.649010e+002 -3.324133e+001  1.110054e+002  2.322351e+001  1.332483e+001 -3.376411e+000  9.640462e+001
5.4881875000e+009 -8.769544e+000  1.610196e+002 -3.357367e+001  1.116229e+002  2.317079e+001  1.397384e+001 -3.525801e+000  9.609496e+001
5.4883125000e+009 -8.824288e+000  1.596189e+002 -3.323087e+001  1.014290e+002  2.331776e+001  1.328784e+001 -3.331075e+000  9.502457e+001
5.4884375000e+009 -8.893712e+000  1.629434e+002 -3.333981e+001  1.099581e+002  2.321095e+001  1.297555e+001 -3.451779e+000  9.588489e+001
5.4885625000e+009 -8.703366e+000  1.613283e+002 -3.367017e+001  1.060833e+002  2.319722e+001  1.362386e+001 -3.556502e+000  9.528567e+001
5.4886875000e+009 -8.876990e+000  1.599810e+002 -3.356796e+001  1.045295e+002  2.323566e+001  1.325064e+001 -3.534209e+000  9.502117e+001
5.4888125000e+009 -8.835127e+000  1.629146e+002 -3.336924e+001  1.041439e+002  2.311048e+001  1.299610e+001 -3.544074e+000  9.462238e+001
5.4889375000e+009 -8.965355e+000  1.609964e+002 -3.274132e+001  1.074144e+002  2.319520e+001  1.317255e+001 -3.476973e+000  9.538377e+001
5.4890625000e+009 -8.831421e+000  1.599471e+002 -3.284401e+001  1.054619e+002  2.316423e+001  1.285164e+001 -3.482917e+000  9.496182e+001
5.4891875000e+009 -8.781132e+000  1.606385e+002 -3.293947e+001  1.063834e+002  2.306840e+001  1.357219e+001 -3.645898e+000  9.464991e+001
5.4893125000e+009 -8.706627e+000  1.615816e+002 -3.304167e+001  1.045589e+002  2.301562e+001  1.348440e+001 -3.690891e+000  9.397697e+001
5.4894375000e+009 -8.599848e+000  1.596868e+002 -3.381964e+001  1.014065e+002  2.312680e+001  1.232896e+001 -3.668210e+000  9.365849e+001
5.4895625000e+009 -8.838797e+000  1.598094e+002 -3.272791e+001  1.028264e+002  2.309503e+001  1.260978e+001 -3.605817e+000  9.385248e+001
5.4896875000e+009 -8.849836e+000  1.598435e+002 -3.302334e+001  1.067228e+002  2.312291e+001  1.213489e+001 -3.637100e+000  9.441466e+001
5.4898125000e+009 -8.879785e+000  1.608657e+002 -3.342600e+001  1.022829e+002  2.315128e+001  1.132294e+001 -3.615744e+000  9.372241e+001
5.4899375000e+009 -8.777300e+000  1.597101e+002 -3.324973e+001  1.072694e+002  2.304783e+001  1.276785e+001 -3.841705e+000  9.408740e+001
5.4900625000e+009 -8.785872e+000  1.597331e+002 -3.362740e+001  1.034637e+002  2.301367e+001  1.291177e+001 -3.925574e+000  9.307893e+001
5.4901875000e+009 -8.577594e+000  1.585729e+002 -3.362222e+001  1.050499e+002  2.308135e+001  1.184370e+001 -3.827871e+000  9.357738e+001
5.4903125000e+009 -8.674758e+000  1.596120e+002 -3.329073e+001  1.034982e+002  2.310003e+001  1.230998e+001 -3.864964e+000  9.351949e+001
5.4904375000e+009 -8.620170e+000  1.597672e+002 -3.371107e+001  9.724395e+001  2.297963e+001  1.202763e+001 -3.939772e+000  9.159818e+001
5.4905625000e+009 -8.788438e+000  1.581451e+002 -3.365713e+001  1.058584e+002  2.310929e+001  1.158554e+001 -3.929132e+000  9.362637e+001
5.4906875000e+009 -8.836861e+000  1.588227e+002 -3.299172e+001  1.011726e+002  2.300966e+001  1.176518e+001 -3.886046e+000  9.237467e+001
5.4908125000e+009 -8.670991e+000  1.584636e+002 -3.392742e+001  1.001408e+002  2.300453e+001  1.196850e+001 -4.085203e+000  9.188493e+001
5.4909375000e+009 -8.626471e+000  1.577749e+002 -3.389932e+001  9.404519e+001  2.302691e+001  1.166787e+001 -4.105087e+000  9.082275e+001
5.4910625000e+009 -8.835902e+000  1.582727e+002 -3.325861e+001  9.857655e+001  2.291175e+001  1.238672e+001 -4.129621e+000  9.103126e+001
5.4911875000e+009 -8.725892e+000  1.571916e+002 -3.360127e+001  9.575175e+001  2.291167e+001  1.179082e+001 -4.142308e+000  9.027820e+001
5.4913125000e+009 -8.671943e+000  1.568624e+002 -3.367900e+001  1.004926e+002  2.297772e+001  1.149977e+001 -4.152359e+000  9.149332e+001
5.4914375000e+009 -8.631763e+000  1.571083e+002 -3.324022e+001  1.060848e+002  2.291543e+001  1.144921e+001 -4.100512e+000  9.201544e+001
5.4915625000e+009 -8.778295e+000  1.563702e+002 -3.324812e+001  1.001351e+002  2.286194e+001  1.172851e+001 -4.187709e+000  9.034468e+001
5.4916875000e+009 -8.795639e+000  1.569242e+002 -3.305640e+001  1.017023e+002  2.294809e+001  1.071186e+001 -4.075109e+000  9.114957e+001
5.4918125000e+009 -8.828542e+000  1.578632e+002 -3.416261e+001  9.779981e+001  2.295114e+001  1.058069e+001 -4.306647e+000  9.022327e+001
5.4919375000e+009 -8.749965e+000  1.578206e+002 -3.377271e+001  9.537050e+001  2.287719e+001  1.126349e+001 -4.358711e+000  8.946357e+001
5.4920625000e+009 -8.741908e+000  1.563973e+002 -3.346632e+001  9.665464e+001  2.312497e+001  1.029693e+001 -4.167822e+000  9.066405e+001
5.4921875000e+009 -8.646819e+000  1.560664e+002 -3.384195e+001  1.006625e+002  2.289202e+001  1.081078e+001 -4.396610e+000  9.012292e+001
5.4923125000e+009 -8.865422e+000  1.562252e+002 -3.351316e+001  9.525736e+001  2.279594e+001  1.099702e+001 -4.413313e+000  8.845184e+001
5.4924375000e+009 -8.778921e+000  1.559714e+002 -3.323875e+001  9.552299e+001  2.295957e+001  1.071050e+001 -4.351409e+000  8.931476e+001
5.4925625000e+009 -8.774672e+000  1.557066e+002 -3.387430e+001  9.993195e+001  2.287855e+001  1.032770e+001 -4.478514e+000  8.911665e+001
5.4926875000e+009 -8.737866e+000  1.561822e+002 -3.407675e+001  9.679872e+001  2.282614e+001  1.061827e+001 -4.590274e+000  8.855627e+001
5.4928125000e+009 -8.745916e+000  1.553515e+002 -3.432565e+001  9.490993e+001  2.295301e+001  9.832672e+000 -4.570384e+000  8.871084e+001
5.4929375000e+009 -8.679311e+000  1.548589e+002 -3.396647e+001  9.895059e+001  2.284764e+001  1.015152e+001 -4.584320e+000  8.872212e+001
5.4930625000e+009 -8.841295e+000  1.546695e+002 -3.334624e+001  9.776777e+001  2.283835e+001  1.031107e+001 -4.559493e+000  8.809820e+001
5.4931875000e+009 -8.723145e+000  1.545719e+002 -3.441911e+001  9.851614e+001  2.295017e+001  9.323483e+000 -4.615186e+000  8.895074e+001
5.4933125000e+009 -8.696671e+000  1.544374e+002 -3.413337e+001  9.896114e+001  2.273989e+001  1.018536e+001 -4.781052e+000  8.748748e+001
5.4934375000e+009 -8.739444e+000  1.545282e+002 -3.425613e+001  9.758280e+001  2.281488e+001  1.022147e+001 -4.843566e+000  8.772797e+001
5.4935625000e+009 -8.894584e+000  1.540338e+002 -3.373901e+001  9.329659e+001  2.281599e+001  9.603150e+000 -4.716005e+000  8.651301e+001
5.4936875000e+009 -8.810788e+000  1.542353e+002 -3.379786e+001  9.250935e+001  2.272567e+001  9.926925e+000 -4.794062e+000  8.600143e+001
5.4938125000e+009 -8.828691e+000  1.538521e+002 -3.403169e+001  9.171133e+001  2.272991e+001  9.893114e+000 -4.899481e+000  8.545238e+001
5.4939375000e+009 -8.791210e+000  1.541344e+002 -3.445591e+001  9.431355e+001  2.281847e+001  9.123869e+000 -4.912896e+000  8.631632e+001
5.4940625000e+009 -8.841148e+000  1.538651e+002 -3.425611e+001  9.491009e+001  2.275583e+001  9.466963e+000 -4.928104e+000  8.613596e+001
5.4941875000e+009 -8.865714e+000  1.527020e+002 -3.433595e+001  9.737404e+001  2.279227e+001  9.655062e+000 -5.034331e+000  8.641429e+001
5.4943125000e+009 -8.825320e+000  1.526500e+002 -3.451700e+001  9.347449e+001  2.283300e+001  9.526974e+000 -5.077433e+000  8.591687e+001
5.4944375000e+009 -8.857643e+000  1.521688e+002 -3.364238e+001  9.406864e+001  2.282500e+001  9.346012e+000 -4.968205e+000  8.567348e+001
5.4945625000e+009 -8.954893e+000  1.523370e+002 -3.323286e+001  9.423372e+001  2.283935e+001  9.137787e+000 -4.875061e+000  8.537414e+001
5.4946875000e+009 -8.955433e+000  1.523169e+002 -3.466566e+001  9.543783e+001  2.285276e+001  8.840197e+000 -5.195013e+000  8.535535e+001
5.4948125000e+009 -9.040052e+000  1.517727e+002 -3.393373e+001  9.053759e+001  2.272305e+001  8.429115e+000 -5.025317e+000  8.381493e+001
5.4949375000e+009 -8.961896e+000  1.520479e+002 -3.419254e+001  9.102239e+001  2.281942e+001  8.911147e+000 -5.203724e+000  8.431836e+001
5.4950625000e+009 -8.932508e+000  1.509131e+002 -3.391652e+001  9.528159e+001  2.279318e+001  8.567167e+000 -5.136365e+000  8.463875e+001
5.4951875000e+009 -8.937738e+000  1.513759e+002 -3.396434e+001  9.224760e+001  2.290791e+001  8.474095e+000 -5.115245e+000  8.455132e+001
5.4953125000e+009 -9.062037e+000  1.516964e+002 -3.355536e+001  9.083129e+001  2.276112e+001  8.359503e+000 -5.172110e+000  8.349871e+001
5.4954375000e+009 -9.122570e+000  1.505757e+002 -3.398425e+001  8.514796e+001  2.278963e+001  8.068113e+000 -5.224945e+000  8.218159e+001
5.4955625000e+009 -9.158230e+000  1.512235e+002 -3.365825e+001  8.952446e+001  2.271456e+001  7.416578e+000 -5.164859e+000  8.190556e+001
5.4956875000e+009 -8.952041e+000  1.500644e+002 -3.375131e+001  9.547546e+001  2.268781e+001  7.735076e+000 -5.195618e+000  8.306416e+001
5.4958125000e+009 -9.260724e+000  1.494073e+002 -3.356224e+001  8.933051e+001  2.280789e+001  7.693450e+000 -5.247434e+000  8.217821e+001
5.4959375000e+009 -9.004541e+000  1.501839e+002 -3.466069e+001  8.934701e+001  2.272834e+001  7.695911e+000 -5.508931e+000  8.144411e+001
5.4960625000e+009 -8.943876e+000  1.506093e+002 -3.389899e+001  9.171482e+001  2.273253e+001  7.762510e+000 -5.431969e+000  8.240562e+001
5.4961875000e+009 -9.122768e+000  1.479809e+002 -3.434616e+001  9.092846e+001  2.273427e+001  7.323062e+000 -5.475606e+000  8.110748e+001
5.4963125000e+009 -9.111120e+000  1.492313e+002 -3.416923e+001  9.039299e+001  2.271824e+001  7.444976e+000 -5.463433e+000  8.106958e+001
5.4964375000e+009 -8.940673e+000  1.490838e+002 -3.425742e+001  9.290992e+001  2.269022e+001  7.113925e+000 -5.506007e+000  8.092574e+001
5.4965625000e+009 -9.227420e+000  1.483549e+002 -3.422451e+001  8.769875e+001  2.280282e+001  6.934880e+000 -5.507739e+000  8.084541e+001
5.4966875000e+009 -8.915199e+000  1.502300e+002 -3.407020e+001  8.467222e+001  2.267440e+001  7.071561e+000 -5.592234e+000  7.917403e+001
5.4968125000e+009 -9.157137e+000  1.486612e+002 -3.392873e+001  8.708253e+001  2.263903e+001  6.250464e+000 -5.425174e+000  7.874193e+001
5.4969375000e+009 -9.137741e+000  1.484883e+002 -3.440429e+001  8.633163e+001  2.275091e+001  6.699071e+000 -5.686577e+000  7.950519e+001
5.4970625000e+009 -9.136209e+000  1.484420e+002 -3.409163e+001  8.710653e+001  2.266511e+001  6.266675e+000 -5.542288e+000  7.852338e+001
5.4971875000e+009 -9.322740e+000  1.474895e+002 -3.350220e+001  9.056252e+001  2.266024e+001  6.308353e+000 -5.547517e+000  7.925146e+001
5.4973125000e+009 -9.263159e+000  1.472698e+002 -3.427287e+001  8.596445e+001  2.279237e+001  6.502722e+000 -5.892627e+000  7.894000e+001
5.4974375000e+009 -9.113006e+000  1.477163e+002 -3.479644e+001  8.749902e+001  2.265732e+001  6.057377e+000 -5.805018e+000  7.763252e+001
5.4975625000e+009 -9.093864e+000  1.481055e+002 -3.479224e+001  8.542482e+001  2.264243e+001  6.172750e+000 -5.979282e+000  7.775034e+001
5.4976875000e+009 -9.368916e+000  1.467694e+002 -3.435873e+001  8.640868e+001  2.279666e+001  5.919377e+000 -5.868308e+000  7.871664e+001
5.4978125000e+009 -9.280385e+000  1.469830e+002 -3.483575e+001  8.582943e+001  2.264785e+001  5.566916e+000 -5.943255e+000  7.719666e+001
5.4979375000e+009 -9.170725e+000  1.476772e+002 -3.388998e+001  8.414310e+001  2.263283e+001  5.475904e+000 -5.692638e+000  7.608512e+001
5.4980625000e+009 -9.490988e+000  1.461590e+002 -3.417812e+001  7.812506e+001  2.272293e+001  5.352448e+000 -5.938381e+000  7.544113e+001
5.4981875000e+009 -9.230768e+000  1.450961e+002 -3.488395e+001  8.975069e+001  2.269475e+001  5.374110e+000 -5.934703e+000  7.715598e+001
5.4983125000e+009 -9.349182e+000  1.472363e+002 -3.443675e+001  8.024961e+001  2.264993e+001  4.927299e+000 -6.006936e+000  7.443275e+001
5.4984375000e+009 -9.536951e+000  1.455003e+002 -3.385617e+001  8.262013e+001  2.270017e+001  4.850370e+000 -5.985653e+000  7.543983e+001
5.4985625000e+009 -9.429898e+000  1.430865e+002 -3.431926e+001  8.579544e+001  2.270499e+001  5.072917e+000 -6.017218e+000  7.579856e+001
5.4986875000e+009 -9.213246e+000  1.451957e+002 -3.480279e+001  8.548534e+001  2.262920e+001  4.587832e+000 -5.975183e+000  7.445505e+001
5.4988125000e+009 -9.455264e+000  1.446784e+002 -3.418099e+001  8.437489e+001  2.268824e+001  4.412118e+000 -6.094894e+000  7.424510e+001
5.4989375000e+009 -9.395574e+000  1.431683e+002 -3.426128e+001  8.631855e+001  2.271074e+001  4.621450e+000 -5.979114e+000  7.491703e+001
5.4990625000e+009 -9.461706e+000  1.436137e+002 -3.482524e+001  8.368270e+001  2.265586e+001  3.984726e+000 -6.148620e+000  7.346767e+001
5.4991875000e+009 -9.502234e+000  1.435125e+002 -3.487959e+001  7.909547e+001  2.267535e+001  4.158074e+000 -6.344620e+000  7.368234e+001
5.4993125000e+009 -9.617025e+000  1.429082e+002 -3.561492e+001  8.311741e+001  2.267412e+001  3.811188e+000 -6.328465e+000  7.309855e+001
5.4994375000e+009 -9.278856e+000  1.443552e+002 -3.472983e+001  8.637876e+001  2.266632e+001  4.003210e+000 -6.059762e+000  7.342808e+001
5.4995625000e+009 -9.494745e+000  1.431550e+002 -3.441318e+001  8.787208e+001  2.267779e+001  3.766666e+000 -6.184299e+000  7.402183e+001
5.4996875000e+009 -9.410830e+000  1.438152e+002 -3.506792e+001  8.033810e+001  2.264871e+001  3.293845e+000 -6.224399e+000  7.130306e+001
5.4998125000e+009 -9.536503e+000  1.441397e+002 -3.482622e+001  7.503061e+001  2.261966e+001  3.100327e+000 -6.315824e+000  7.046240e+001
5.4999375000e+009 -9.828600e+000  1.419377e+002 -3.421619e+001  8.021047e+001  2.267491e+001  2.950629e+000 -6.219124e+000  7.148675e+001
5.5000625000e+009 -9.711004e+000  1.410893e+002 -3.424117e+001  8.090868e+001  2.270511e+001  3.106700e+000 -6.174494e+000  7.100037e+001
5.5001875000e+009 -9.719790e+000  1.419815e+002 -3.428798e+001  7.680624e+001  2.267515e+001  2.621352e+000 -6.286679e+000  6.923504e+001
5.5003125000e+009 -9.709329e+000  1.412680e+002 -3.430774e+001  8.027608e+001  2.268699e+001  2.599780e+000 -6.274894e+000  6.996776e+001
5.5004375000e+009 -9.712885e+000  1.419026e+002 -3.487602e+001  7.930367e+001  2.270742e+001  2.389765e+000 -6.465854e+000  6.891170e+001
5.5005625000e+009 -9.850231e+000  1.436262e+002 -3.475108e+001  8.102611e+001  2.260755e+001  2.145510e+000 -6.467373e+000  6.996716e+001
5.5006875000e+009 -9.726215e+000  1.421537e+002 -3.502970e+001  7.932736e+001  2.266443e+001  2.035050e+000 -6.565348e+000  6.881268e+001
5.5008125000e+009 -9.661206e+000  1.410131e+002 -3.500381e+001  8.029819e+001  2.264794e+001  2.435046e+000 -6.498944e+000  6.921895e+001
5.5009375000e+009 -9.888550e+000  1.426211e+002 -3.446546e+001  8.087241e+001  2.264753e+001  1.770813e+000 -6.396614e+000  6.842065e+001
5.5010625000e+009 -9.621165e+000  1.400789e+002 -3.444542e+001  8.531072e+001  2.265788e+001  1.883707e+000 -6.470435e+000  6.907973e+001
5.5011875000e+009 -9.598297e+000  1.385411e+002 -3.502673e+001  8.276554e+001  2.272436e+001  1.638151e+000 -6.650093e+000  6.759968e+001
5.5013125000e+009 -9.822389e+000  1.408909e+002 -3.480365e+001  7.803638e+001  2.265949e+001  1.353147e+000 -6.451627e+000  6.671780e+001
5.5014375000e+009 -9.973559e+000  1.382754e+002 -3.431039e+001  7.436238e+001  2.270236e+001  1.457621e+000 -6.418530e+000  6.577711e+001
5.5015625000e+009 -9.710777e+000  1.390597e+002 -3.533743e+001  7.862656e+001  2.265514e+001  1.252032e+000 -6.686270e+000  6.701680e+001
5.5016875000e+009 -9.857885e+000  1.393716e+002 -3.526358e+001  7.639077e+001  2.266131e+001  1.332399e+000 -6.772883e+000  6.592297e+001
5.5018125000e+009 -9.770001e+000  1.396171e+002 -3.567780e+001  7.931698e+001  2.263106e+001  6.949859e-001 -6.920359e+000  6.610770e+001
5.5019375000e+009 -9.854447e+000  1.401082e+002 -3.509088e+001  7.901057e+001  2.262826e+001  4.260240e-001 -6.746953e+000  6.546748e+001
5.5020625000e+009 -9.729793e+000  1.378071e+002 -3.571172e+001  8.185750e+001  2.265321e+001  7.814931e-001 -6.888521e+000  6.614338e+001
5.5021875000e+009 -9.774989e+000  1.359251e+002 -3.504485e+001  7.985011e+001  2.270825e+001  7.240226e-001 -6.714453e+000  6.492589e+001
5.5023125000e+009 -1.008910e+001  1.379517e+002 -3.484665e+001  7.602978e+001  2.265788e+001  2.716572e-001 -6.737980e+000  6.424261e+001
5.5024375000e+009 -1.004801e+001  1.410978e+002 -3.448263e+001  7.508649e+001  2.265119e+001  4.576857e-001 -6.508164e+000  6.314740e+001
5.5025625000e+009 -9.814618e+000  1.357672e+002 -3.523508e+001  7.538029e+001  2.271811e+001  7.833058e-002 -6.832814e+000  6.305813e+001
5.5026875000e+009 -9.936272e+000  1.379446e+002 -3.480872e+001  8.032137e+001  2.268832e+001 -1.554293e-001 -6.752674e+000  6.336687e+001
5.5028125000e+009 -1.022405e+001  1.390962e+002 -3.503920e+001  8.005061e+001  2.270930e+001 -2.560920e-001 -6.585717e+000  6.289228e+001
5.5029375000e+009 -9.815868e+000  1.371339e+002 -3.491866e+001  7.732569e+001  2.266149e+001 -1.667553e-001 -6.747592e+000  6.237021e+001
5.5030625000e+009 -1.009579e+001  1.362510e+002 -3.563439e+001  7.907076e+001  2.264373e+001 -6.448266e-001 -6.971471e+000  6.262410e+001
5.5031875000e+009 -1.006077e+001  1.395447e+002 -3.506536e+001  7.730022e+001  2.260518e+001 -6.087388e-001 -6.886682e+000  6.183246e+001
5.5033125000e+009 -1.004485e+001  1.354296e+002 -3.526274e+001  7.545200e+001  2.273442e+001 -5.560803e-001 -6.895362e+000  6.137069e+001
5.5034375000e+009 -9.999953e+000  1.337140e+002 -3.523673e+001  7.637571e+001  2.273760e+001 -6.963887e-001 -6.759353e+000  6.056866e+001
5.5035625000e+009 -9.976006e+000  1.376310e+002 -3.499331e+001  7.601417e+001  2.271356e+001 -1.183420e+000 -6.776446e+000  5.982834e+001
5.5036875000e+009 -9.979074e+000  1.344672e+002 -3.533569e+001  7.410390e+001  2.271393e+001 -1.375591e+000 -6.983084e+000  5.945054e+001
5.5038125000e+009 -1.003296e+001  1.355542e+002 -3.541588e+001  7.299481e+001  2.268535e+001 -1.657431e+000 -7.060685e+000  5.895071e+001
5.5039375000e+009 -1.031534e+001  1.375965e+002 -3.505373e+001  7.930128e+001  2.264910e+001 -6.633481e-001 -6.641976e+000  6.080727e+001
5.5040625000e+009 -1.010207e+001  1.332013e+002 -3.589400e+001  7.653282e+001  2.276765e+001 -1.969311e+000 -7.159442e+000  5.854865e+001
5.5041875000e+009 -1.025833e+001  1.355681e+002 -3.541928e+001  7.580583e+001  2.272607e+001 -1.881604e+000 -6.876728e+000  5.843337e+001
5.5043125000e+009 -1.033733e+001  1.360083e+002 -3.502532e+001  7.164996e+001  2.273024e+001 -1.887558e+000 -6.801188e+000  5.748023e+001
5.5044375000e+009 -1.005162e+001  1.356195e+002 -3.487189e+001  7.412406e+001  2.271274e+001 -2.263067e+000 -6.864394e+000  5.690686e+001
5.5045625000e+009 -1.006629e+001  1.358958e+002 -3.540054e+001  7.310086e+001  2.268327e+001 -2.177288e+000 -6.930383e+000  5.690788e+001
5.5046875000e+009 -1.023750e+001  1.373268e+002 -3.570331e+001  6.914727e+001  2.262729e+001 -1.657083e+000 -6.916460e+000  5.724052e+001
5.5048125000e+009 -1.037048e+001  1.341918e+002 -3.544532e+001  7.247353e+001  2.273912e+001 -2.927160e+000 -7.050848e+000  5.574170e+001
5.5049375000e+009 -1.011882e+001  1.337251e+002 -3.579389e+001  7.442035e+001  2.269728e+001 -2.341052e+000 -7.001168e+000  5.683576e+001
5.5050625000e+009 -1.027211e+001  1.360137e+002 -3.548462e+001  7.479528e+001  2.272821e+001 -3.100928e+000 -6.959529e+000  5.517586e+001
5.5051875000e+009 -1.018674e+001  1.342138e+002 -3.698582e+001  7.328377e+001  2.275866e+001 -3.419461e+000 -7.259856e+000  5.507399e+001
5.5053125000e+009 -1.028965e+001  1.345007e+002 -3.559589e+001  7.486078e+001  2.270178e+001 -2.924714e+000 -6.967908e+000  5.573289e+001
5.5054375000e+009 -1.033912e+001  1.340562e+002 -3.507825e+001  7.363440e+001  2.264136e+001 -2.439319e+000 -6.745433e+000  5.580230e+001
5.5055625000e+009 -1.024087e+001  1.317160e+002 -3.591725e+001  7.440091e+001  2.274508e+001 -3.760262e+000 -7.079464e+000  5.430986e+001
5.5056875000e+009 -1.023367e+001  1.320714e+002 -3.587830e+001  7.309813e+001  2.278606e+001 -4.287617e+000 -7.110394e+000  5.334665e+001
5.5058125000e+009 -1.035213e+001  1.326953e+002 -3.571590e+001  7.498558e+001  2.274976e+001 -4.270014e+000 -7.100877e+000  5.353803e+001
5.5059375000e+009 -1.038345e+001  1.344684e+002 -3.600009e+001  7.259174e+001  2.267138e+001 -4.287086e+000 -7.103302e+000  5.343073e+001
5.5060625000e+009 -1.050814e+001  1.322538e+002 -3.555792e+001  7.466415e+001  2.267602e+001 -4.333547e+000 -6.969791e+000  5.359955e+001
5.5061875000e+009 -1.049604e+001  1.330024e+002 -3.593646e+001  7.226165e+001  2.259883e+001 -3.854921e+000 -7.054172e+000  5.359616e+001
5.5063125000e+009 -1.034547e+001  1.321743e+002 -3.569845e+001  6.907745e+001  2.278965e+001 -4.610629e+000 -7.024818e+000  5.136306e+001
5.5064375000e+009 -1.042623e+001  1.315035e+002 -3.554662e+001  7.154990e+001  2.273392e+001 -5.159407e+000 -6.991210e+000  5.127242e+001
5.5065625000e+009 -1.091146e+001  1.318378e+002 -3.570572e+001  7.575698e+001  2.264973e+001 -5.308660e+000 -7.046525e+000  5.265843e+001
5.5066875000e+009 -1.010258e+001  1.299603e+002 -3.603366e+001  7.449679e+001  2.269348e+001 -4.708773e+000 -7.138493e+000  5.180843e+001
5.5068125000e+009 -1.035830e+001  1.308490e+002 -3.641955e+001  7.166961e+001  2.271011e+001 -5.103217e+000 -7.164077e+000  5.126934e+001
5.5069375000e+009 -1.067850e+001  1.303898e+002 -3.600453e+001  7.322832e+001  2.271435e+001 -4.636930e+000 -6.955624e+000  5.179104e+001
5.5070625000e+009 -1.061585e+001  1.300546e+002 -3.537938e+001  7.316389e+001  2.278513e+001 -6.032047e+000 -6.957182e+000  4.969833e+001
5.5071875000e+009 -1.037717e+001  1.283175e+002 -3.614532e+001  7.381715e+001  2.277677e+001 -6.251606e+000 -7.119301e+000  4.961781e+001
5.5073125000e+009 -1.066898e+001  1.305062e+002 -3.571539e+001  7.080260e+001  2.277423e+001 -5.802288e+000 -6.940410e+000  4.925623e+001
5.5074375000e+009 -1.037118e+001  1.287740e+002 -3.614658e+001  6.959151e+001  2.280676e+001 -6.553440e+000 -7.153300e+000  4.821486e+001
5.5075625000e+009 -1.083167e+001  1.291569e+002 -3.488470e+001  7.111604e+001  2.269213e+001 -7.213307e+000 -7.004215e+000  4.849032e+001
5.5076875000e+009 -1.070112e+001  1.293766e+002 -3.559388e+001  7.391676e+001  2.265067e+001 -6.892146e+000 -7.067171e+000  4.904178e+001
5.5078125000e+009 -1.033232e+001  1.282190e+002 -3.625432e+001  6.699327e+001  2.275484e+001 -6.379853e+000 -7.151188e+000  4.767307e+001
5.5079375000e+009 -1.049192e+001  1.280705e+002 -3.606387e+001  7.126724e+001  2.287952e+001 -7.259082e+000 -7.024139e+000  4.707695e+001
5.5080625000e+009 -1.091326e+001  1.281703e+002 -3.614777e+001  6.993705e+001  2.271329e+001 -7.354234e+000 -7.056457e+000  4.757946e+001
5.5081875000e+009 -1.074225e+001  1.284492e+002 -3.622993e+001  7.595464e+001  2.274749e+001 -7.520849e+000 -7.050241e+000  4.813988e+001
5.5083125000e+009 -1.057460e+001  1.287721e+002 -3.554466e+001  6.184499e+001  2.279692e+001 -7.783080e+000 -7.095721e+000  4.448954e+001
5.5084375000e+009 -1.050036e+001  1.279583e+002 -3.626887e+001  6.464435e+001  2.273691e+001 -7.206182e+000 -7.099845e+000  4.581343e+001
5.5085625000e+009 -1.063959e+001  1.268312e+002 -3.584776e+001  6.814028e+001  2.276365e+001 -7.661782e+000 -7.007085e+000  4.585139e+001
5.5086875000e+009 -1.062586e+001  1.265235e+002 -3.630976e+001  7.038935e+001  2.281947e+001 -8.338494e+000 -7.003070e+000  4.561523e+001
5.5088125000e+009 -1.066992e+001  1.262544e+002 -3.661847e+001  7.007306e+001  2.270491e+001 -7.695485e+000 -7.081560e+000  4.657264e+001
5.5089375000e+009 -1.059446e+001  1.263698e+002 -3.617285e+001  6.980983e+001  2.277107e+001 -8.263836e+000 -6.992527e+000  4.544844e+001
5.5090625000e+009 -1.069873e+001  1.262589e+002 -3.625550e+001  6.912818e+001  2.287724e+001 -8.643336e+000 -7.009748e+000  4.437121e+001
5.5091875000e+009 -1.085704e+001  1.256000e+002 -3.620130e+001  6.769861e+001  2.274749e+001 -8.649511e+000 -6.981127e+000  4.453877e+001
5.5093125000e+009 -1.069812e+001  1.257987e+002 -3.579835e+001  6.993620e+001  2.277886e+001 -8.799105e+000 -6.939028e+000  4.440696e+001
5.5094375000e+009 -1.058165e+001  1.256622e+002 -3.669566e+001  6.401894e+001  2.279641e+001 -8.844014e+000 -7.127711e+000  4.360838e+001
5.5095625000e+009 -1.099992e+001  1.240352e+002 -3.657058e+001  7.193825e+001  2.282554e+001 -9.151962e+000 -6.919196e+000  4.424339e+001
5.5096875000e+009 -1.066867e+001  1.251827e+002 -3.654749e+001  6.897131e+001  2.294256e+001 -9.470232e+000 -7.000969e+000  4.300175e+001
5.5098125000e+009 -1.064172e+001  1.241522e+002 -3.696526e+001  7.111231e+001  2.285256e+001 -1.000083e+001 -7.066015e+000  4.347269e+001
5.5099375000e+009 -1.092847e+001  1.240448e+002 -3.665198e+001  6.790733e+001  2.275651e+001 -9.432106e+000 -6.986143e+000  4.341556e+001
5.5100625000e+009 -1.069250e+001  1.250649e+002 -3.674416e+001  6.434649e+001  2.288212e+001 -1.005484e+001 -7.041044e+000  4.144703e+001
5.5101875000e+009 -1.068325e+001  1.232538e+002 -3.661053e+001  6.861931e+001  2.271539e+001 -1.005089e+001 -7.033726e+000  4.288635e+001
5.5103125000e+009 -1.076101e+001  1.234672e+002 -3.635131e+001  6.677369e+001  2.287260e+001 -9.591305e+000 -6.882469e+000  4.177970e+001
5.5104375000e+009 -1.068514e+001  1.243177e+002 -3.683776e+001  6.305731e+001  2.288954e+001 -1.002837e+001 -7.014948e+000  4.101226e+001
5.5105625000e+009 -1.066621e+001  1.235938e+002 -3.703131e+001  6.763997e+001  2.284679e+001 -1.009423e+001 -6.934190e+000  4.178553e+001
5.5106875000e+009 -1.078264e+001  1.232887e+002 -3.639676e+001  6.728902e+001  2.280771e+001 -1.072554e+001 -6.903859e+000  4.125149e+001
5.5108125000e+009 -1.092984e+001  1.227521e+002 -3.613561e+001  6.917450e+001  2.290645e+001 -1.067309e+001 -6.770143e+000  4.104942e+001
5.5109375000e+009 -1.073621e+001  1.229093e+002 -3.687531e+001  6.758974e+001  2.292803e+001 -1.102335e+001 -6.971938e+000  4.066196e+001
5.5110625000e+009 -1.092538e+001  1.225307e+002 -3.640094e+001  6.421756e+001  2.297738e+001 -1.152699e+001 -6.868900e+000  3.939088e+001
5.5111875000e+009 -1.086506e+001  1.220441e+002 -3.589943e+001  6.699890e+001  2.288293e+001 -1.122056e+001 -6.765592e+000  4.010196e+001
5.5113125000e+009 -1.073091e+001  1.223009e+002 -3.683889e+001  6.709136e+001  2.296693e+001 -1.192435e+001 -6.870958e+000  3.978931e+001
5.5114375000e+009 -1.094473e+001  1.223968e+002 -3.593634e+001  6.519482e+001  2.287424e+001 -1.164405e+001 -6.751406e+000  3.927293e+001
5.5115625000e+009 -1.084196e+001  1.210777e+002 -3.668219e+001  6.760081e+001  2.295059e+001 -1.161543e+001 -6.771387e+000  3.953234e+001
5.5116875000e+009 -1.077331e+001  1.217146e+002 -3.730955e+001  6.519807e+001  2.286956e+001 -1.211523e+001 -6.960483e+000  3.949765e+001
5.5118125000e+009 -1.085964e+001  1.211768e+002 -3.706378e+001  6.563338e+001  2.293341e+001 -1.206702e+001 -6.842667e+000  3.917169e+001
5.5119375000e+009 -1.082406e+001  1.211531e+002 -3.672681e+001  6.539243e+001  2.299582e+001 -1.255227e+001 -6.781543e+000  3.838131e+001
5.5120625000e+009 -1.084260e+001  1.211242e+002 -3.626773e+001  6.443572e+001  2.301150e+001 -1.244974e+001 -6.706820e+000  3.770966e+001
5.5121875000e+009 -1.082976e+001  1.203971e+002 -3.708030e+001  6.172320e+001  2.296430e+001 -1.267864e+001 -6.828712e+000  3.750657e+001
5.5123125000e+009 -1.075814e+001  1.202768e+002 -3.712610e+001  6.302261e+001  2.295045e+001 -1.277033e+001 -6.847394e+000  3.794508e+001
5.5124375000e+009 -1.082890e+001  1.204833e+002 -3.685335e+001  6.421017e+001  2.306293e+001 -1.283909e+001 -6.722843e+000  3.744276e+001
5.5125625000e+009 -1.089148e+001  1.202965e+002 -3.648873e+001  6.402525e+001  2.284474e+001 -1.348058e+001 -6.722312e+000  3.733097e+001
5.5126875000e+009 -1.096822e+001  1.199304e+002 -3.615632e+001  6.133514e+001  2.296365e+001 -1.353514e+001 -6.655362e+000  3.638825e+001
5.5128125000e+009 -1.088175e+001  1.188792e+002 -3.688005e+001  6.581425e+001  2.296350e+001 -1.368453e+001 -6.716292e+000  3.744468e+001
5.5129375000e+009 -1.084579e+001  1.189424e+002 -3.730872e+001  6.418774e+001  2.296459e+001 -1.391776e+001 -6.759413e+000  3.714230e+001
5.5130625000e+009 -1.097652e+001  1.182538e+002 -3.666009e+001  6.633025e+001  2.301907e+001 -1.393792e+001 -6.648337e+000  3.690583e+001
5.5131875000e+009 -1.089931e+001  1.182370e+002 -3.680910e+001  6.349280e+001  2.304197e+001 -1.411191e+001 -6.663808e+000  3.587234e+001
5.5133125000e+009 -1.088639e+001  1.181023e+002 -3.714751e+001  6.247087e+001  2.300941e+001 -1.439937e+001 -6.740790e+000  3.593173e+001
5.5134375000e+009 -1.088106e+001  1.175945e+002 -3.717548e+001  6.426563e+001  2.298862e+001 -1.453687e+001 -6.725764e+000  3.621618e+001
5.5135625000e+009 -1.096016e+001  1.170495e+002 -3.688245e+001  6.487473e+001  2.311445e+001 -1.444468e+001 -6.603049e+000  3.578140e+001
5.5136875000e+009 -1.092357e+001  1.176129e+002 -3.715690e+001  6.040343e+001  2.300759e+001 -1.459351e+001 -6.754584e+000  3.566167e+001
5.5138125000e+009 -1.096173e+001  1.169033e+002 -3.707895e+001  5.958412e+001  2.308650e+001 -1.493681e+001 -6.705250e+000  3.466386e+001
5.5139375000e+009 -1.101189e+001  1.163483e+002 -3.681261e+001  6.078596e+001  2.302757e+001 -1.524102e+001 -6.700897e+000  3.448106e+001
5.5140625000e+009 -1.095234e+001  1.162949e+002 -3.744672e+001  6.132941e+001  2.302049e+001 -1.543722e+001 -6.738552e+000  3.513782e+001
5.5141875000e+009 -1.100592e+001  1.158189e+002 -3.687816e+001  6.045692e+001  2.307015e+001 -1.549321e+001 -6.659988e+000  3.402777e+001
5.5143125000e+009 -1.104704e+001  1.146801e+002 -3.681205e+001  6.720361e+001  2.311578e+001 -1.579262e+001 -6.559623e+000  3.516075e+001
5.5144375000e+009 -1.096645e+001  1.152185e+002 -3.728559e+001  6.052895e+001  2.305908e+001 -1.589244e+001 -6.726550e+000  3.459072e+001
5.5145625000e+009 -1.103179e+001  1.144785e+002 -3.709825e+001  6.392744e+001  2.306314e+001 -1.603594e+001 -6.637237e+000  3.451627e+001
5.5146875000e+009 -1.117172e+001  1.141551e+002 -3.627603e+001  6.249840e+001  2.309914e+001 -1.636726e+001 -6.567639e+000  3.351531e+001
5.5148125000e+009 -1.103965e+001  1.142126e+002 -3.732484e+001  6.156884e+001  2.307525e+001 -1.662781e+001 -6.683629e+000  3.423258e+001
5.5149375000e+009 -1.103879e+001  1.145616e+002 -3.730450e+001  5.713227e+001  2.312825e+001 -1.625915e+001 -6.727725e+000  3.298898e+001
5.5150625000e+009 -1.102630e+001  1.139625e+002 -3.685789e+001  6.181025e+001  2.315535e+001 -1.669805e+001 -6.613058e+000  3.279447e+001
5.5151875000e+009 -1.096280e+001  1.131043e+002 -3.760434e+001  6.595721e+001  2.309272e+001 -1.720251e+001 -6.645700e+000  3.402114e+001
5.5153125000e+009 -1.108120e+001  1.134306e+002 -3.736781e+001  5.972620e+001  2.311422e+001 -1.705634e+001 -6.732722e+000  3.298719e+001
5.5154375000e+009 -1.113085e+001  1.123769e+002 -3.702768e+001  6.040727e+001  2.316358e+001 -1.746962e+001 -6.620330e+000  3.247109e+001
5.5155625000e+009 -1.105873e+001  1.127065e+002 -3.764874e+001  6.121954e+001  2.309171e+001 -1.771863e+001 -6.709090e+000  3.300277e+001
5.5156875000e+009 -1.103224e+001  1.123514e+002 -3.736195e+001  5.937822e+001  2.312445e+001 -1.785916e+001 -6.669717e+000  3.218288e+001
5.5158125000e+009 -1.112339e+001  1.112939e+002 -3.737084e+001  6.168050e+001  2.318988e+001 -1.795821e+001 -6.697514e+000  3.219128e+001
5.5159375000e+009 -1.106040e+001  1.112241e+002 -3.785963e+001  6.579342e+001  2.314890e+001 -1.840454e+001 -6.669085e+000  3.279092e+001
5.5160625000e+009 -1.104862e+001  1.113257e+002 -3.731436e+001  6.065763e+001  2.315313e+001 -1.847884e+001 -6.574987e+000  3.126176e+001
5.5161875000e+009 -1.108526e+001  1.103327e+002 -3.724728e+001  6.092536e+001  2.320237e+001 -1.865928e+001 -6.574490e+000  3.136869e+001
5.5163125000e+009 -1.091584e+001  1.107745e+002 -3.813200e+001  6.226315e+001  2.318955e+001 -1.863262e+001 -6.667652e+000  3.231524e+001
5.5164375000e+009 -1.102367e+001  1.098746e+002 -3.735052e+001  6.280774e+001  2.319499e+001 -1.897078e+001 -6.543668e+000  3.158372e+001
5.5165625000e+009 -1.098150e+001  1.087284e+002 -3.765194e+001  5.872557e+001  2.319019e+001 -1.910184e+001 -6.688272e+000  3.154221e+001
5.5166875000e+009 -1.095338e+001  1.104305e+002 -3.782853e+001  5.711323e+001  2.318472e+001 -1.916274e+001 -6.658644e+000  3.125084e+001
5.5168125000e+009 -1.102156e+001  1.095001e+002 -3.777283e+001  5.936781e+001  2.317703e+001 -1.941962e+001 -6.688412e+000  3.126288e+001
5.5169375000e+009 -1.095098e+001  1.080429e+002 -3.781286e+001  5.967244e+001  2.320049e+001 -1.984747e+001 -6.663435e+000  3.118542e+001
5.5170625000e+009 -1.106191e+001  1.089403e+002 -3.754970e+001  6.225534e+001  2.319690e+001 -2.013051e+001 -6.575530e+000  3.095881e+001
5.5171875000e+009 -1.089239e+001  1.086343e+002 -3.843553e+001  6.023679e+001  2.324479e+001 -2.033457e+001 -6.709457e+000  3.068604e+001
5.5173125000e+009 -1.101554e+001  1.081702e+002 -3.787261e+001  5.809292e+001  2.324628e+001 -2.041036e+001 -6.682235e+000  3.023227e+001
5.5174375000e+009 -1.102024e+001  1.082657e+002 -3.792342e+001  6.091626e+001  2.319400e+001 -2.055637e+001 -6.564150e+000  3.085870e+001
5.5175625000e+009 -1.091975e+001  1.090559e+002 -3.899578e+001  5.661226e+001  2.322079e+001 -2.072476e+001 -6.814315e+000  3.039190e+001
5.5176875000e+009 -1.104652e+001  1.070245e+002 -3.714281e+001  6.236426e+001  2.322382e+001 -2.097889e+001 -6.509404e+000  3.033927e+001
5.5178125000e+009 -1.094407e+001  1.083811e+002 -3.859308e+001  5.837718e+001  2.322367e+001 -2.083636e+001 -6.741944e+000  3.052002e+001
5.5179375000e+009 -1.114820e+001  1.081924e+002 -3.805773e+001  5.958899e+001  2.327313e+001 -2.131628e+001 -6.578969e+000  2.951815e+001
5.5180625000e+009 -1.091237e+001  1.063660e+002 -3.825444e+001  5.822383e+001  2.327762e+001 -2.144095e+001 -6.746481e+000  2.951742e+001
5.5181875000e+009 -1.089691e+001  1.068377e+002 -3.820088e+001  5.938748e+001  2.323768e+001 -2.133800e+001 -6.544180e+000  3.072934e+001
5.5183125000e+009 -1.087265e+001  1.068276e+002 -3.813147e+001  5.707843e+001  2.327627e+001 -2.197802e+001 -6.664167e+000  2.932027e+001
5.5184375000e+009 -1.083148e+001  1.058251e+002 -3.803439e+001  5.561575e+001  2.329535e+001 -2.225253e+001 -6.695151e+000  2.878052e+001
5.5185625000e+009 -1.104005e+001  1.056705e+002 -3.804056e+001  6.162572e+001  2.331241e+001 -2.254750e+001 -6.569734e+000  2.899338e+001
5.5186875000e+009 -1.100351e+001  1.059779e+002 -3.779655e+001  5.486123e+001  2.329998e+001 -2.256827e+001 -6.610396e+000  2.837357e+001
5.5188125000e+009 -1.078868e+001  1.052324e+002 -3.831277e+001  5.621464e+001  2.328641e+001 -2.266060e+001 -6.700478e+000  2.894160e+001
5.5189375000e+009 -1.098206e+001  1.054867e+002 -3.832911e+001  5.838309e+001  2.330447e+001 -2.279988e+001 -6.524089e+000  2.911961e+001
5.5190625000e+009 -1.089460e+001  1.043411e+002 -3.834634e+001  6.235136e+001  2.336546e+001 -2.289697e+001 -6.464945e+000  2.918576e+001
5.5191875000e+009 -1.073074e+001  1.044830e+002 -3.813310e+001  5.591271e+001  2.332657e+001 -2.330846e+001 -6.695519e+000  2.822540e+001
5.5193125000e+009 -1.080021e+001  1.045793e+002 -3.863845e+001  5.778337e+001  2.331540e+001 -2.322280e+001 -6.579757e+000  2.923376e+001
5.5194375000e+009 -1.088350e+001  1.040809e+002 -3.852794e+001  5.964244e+001  2.337388e+001 -2.353604e+001 -6.540213e+000  2.848710e+001
5.5195625000e+009 -1.086165e+001  1.033273e+002 -3.934995e+001  5.860907e+001  2.336862e+001 -2.420312e+001 -6.668013e+000  2.838974e+001
5.5196875000e+009 -1.098703e+001  1.038056e+002 -3.786922e+001  5.662618e+001  2.336367e+001 -2.396955e+001 -6.475225e+000  2.788338e+001
5.5198125000e+009 -1.096353e+001  1.037029e+002 -3.781185e+001  5.527885e+001  2.332750e+001 -2.429758e+001 -6.526325e+000  2.790596e+001
5.5199375000e+009 -1.083957e+001  1.029051e+002 -3.816295e+001  5.527058e+001  2.336789e+001 -2.454932e+001 -6.605875e+000  2.776559e+001
5.5200625000e+009 -1.093021e+001  1.024915e+002 -3.853755e+001  6.126708e+001  2.344509e+001 -2.474524e+001 -6.462895e+000  2.782303e+001
5.5201875000e+009 -1.086225e+001  1.027619e+002 -3.804408e+001  5.717365e+001  2.342369e+001 -2.460267e+001 -6.416218e+000  2.743857e+001
5.5203125000e+009 -1.077353e+001  1.017918e+002 -3.857421e+001  5.778648e+001  2.343442e+001 -2.522018e+001 -6.585094e+000  2.705324e+001
5.5204375000e+009 -1.076049e+001  1.020496e+002 -3.836823e+001  5.342492e+001  2.338841e+001 -2.541602e+001 -6.680158e+000  2.729953e+001
5.5205625000e+009 -1.090641e+001  1.020931e+002 -3.883660e+001  5.749644e+001  2.344950e+001 -2.484039e+001 -6.382921e+000  2.813521e+001
5.5206875000e+009 -1.077256e+001  1.019981e+002 -3.935233e+001  5.415926e+001  2.337230e+001 -2.577624e+001 -6.768662e+000  2.794466e+001
5.5208125000e+009 -1.083097e+001  1.019497e+002 -3.845567e+001  5.375212e+001  2.340275e+001 -2.582510e+001 -6.585598e+000  2.720251e+001
5.5209375000e+009 -1.091582e+001  1.009902e+002 -3.881784e+001  5.574812e+001  2.343109e+001 -2.528881e+001 -6.415470e+000  2.837627e+001
5.5210625000e+009 -1.057957e+001  1.008241e+002 -3.875500e+001  5.338570e+001  2.346093e+001 -2.622361e+001 -6.621015e+000  2.671545e+001
5.5211875000e+009 -1.074942e+001  1.004714e+002 -3.867036e+001  5.661266e+001  2.347452e+001 -2.610931e+001 -6.473041e+000  2.757244e+001
5.5213125000e+009 -1.065878e+001  1.005421e+002 -3.867818e+001  5.382537e+001  2.353116e+001 -2.648584e+001 -6.516626e+000  2.609408e+001
5.5214375000e+009 -1.069987e+001  9.995207e+001 -3.875080e+001  5.674901e+001  2.348944e+001 -2.704130e+001 -6.609644e+000  2.675854e+001
5.5215625000e+009 -1.070681e+001  9.988554e+001 -3.824901e+001  5.278427e+001  2.352556e+001 -2.686661e+001 -6.475376e+000  2.577063e+001
5.5216875000e+009 -1.084027e+001  1.003650e+002 -3.788215e+001  5.589768e+001  2.346352e+001 -2.681352e+001 -6.359319e+000  2.662805e+001
5.5218125000e+009 -1.054395e+001  9.941728e+001 -3.857715e+001  6.218758e+001  2.348957e+001 -2.737398e+001 -6.418202e+000  2.727920e+001
5.5219375000e+009 -1.077843e+001  9.931250e+001 -3.888355e+001  5.282822e+001  2.347989e+001 -2.753932e+001 -6.532092e+000  2.652370e+001
5.5220625000e+009 -1.067219e+001  9.881938e+001 -3.890758e+001  5.983294e+001  2.354416e+001 -2.796047e+001 -6.486951e+000  2.667845e+001
5.5221875000e+009 -1.073351e+001  9.811519e+001 -3.917907e+001  5.661090e+001  2.353444e+001 -2.813294e+001 -6.607941e+000  2.653416e+001
5.5223125000e+009 -1.081036e+001  9.890158e+001 -3.843462e+001  5.333211e+001  2.348083e+001 -2.780276e+001 -6.380084e+000  2.663037e+001
5.5224375000e+009 -1.072227e+001  9.846931e+001 -3.888306e+001  5.425951e+001  2.356048e+001 -2.833092e+001 -6.548874e+000  2.612857e+001
5.5225625000e+009 -1.050615e+001  9.835471e+001 -3.913947e+001  5.739426e+001  2.362031e+001 -2.980377e+001 -6.782615e+000  2.448373e+001
5.5226875000e+009 -1.062736e+001  9.847044e+001 -3.837588e+001  5.345736e+001  2.352275e+001 -2.835402e+001 -6.382281e+000  2.606834e+001
5.5228125000e+009 -1.050317e+001  9.791573e+001 -3.932777e+001  5.616035e+001  2.358619e+001 -2.882797e+001 -6.474291e+000  2.647191e+001
5.5229375000e+009 -1.056795e+001  9.726698e+001 -3.915720e+001  5.291746e+001  2.363025e+001 -2.903037e+001 -6.506406e+000  2.537466e+001
5.5230625000e+009 -1.064855e+001  9.754630e+001 -3.900158e+001  5.292880e+001  2.362952e+001 -2.907559e+001 -6.316833e+000  2.554839e+001
5.5231875000e+009 -1.069792e+001  9.627543e+001 -3.884215e+001  6.095686e+001  2.347605e+001 -2.938453e+001 -6.395108e+000  2.786691e+001
5.5233125000e+009 -1.047084e+001  9.724437e+001 -3.888134e+001  5.254583e+001  2.362221e+001 -2.980293e+001 -6.567074e+000  2.509908e+001
5.5234375000e+009 -1.058341e+001  9.673970e+001 -3.894878e+001  5.204623e+001  2.362645e+001 -3.031383e+001 -6.623219e+000  2.445534e+001
5.5235625000e+009 -1.064379e+001  9.639075e+001 -3.891259e+001  5.560521e+001  2.354724e+001 -2.987973e+001 -6.446623e+000  2.667959e+001
5.5236875000e+009 -1.040207e+001  9.645876e+001 -3.966214e+001  5.168493e+001  2.359540e+001 -3.036445e+001 -6.581659e+000  2.592865e+001
5.5238125000e+009 -1.047985e+001  9.581779e+001 -3.911647e+001  5.681399e+001  2.366182e+001 -3.036232e+001 -6.394417e+000  2.529239e+001
5.5239375000e+009 -1.047957e+001  9.583352e+001 -3.944471e+001  5.178767e+001  2.355002e+001 -3.075933e+001 -6.683908e+000  2.632014e+001
5.5240625000e+009 -1.044947e+001  9.564786e+001 -3.930485e+001  5.440753e+001  2.367613e+001 -3.100774e+001 -6.531482e+000  2.480233e+001
5.5241875000e+009 -1.055246e+001  9.491099e+001 -3.943543e+001  5.398537e+001  2.360481e+001 -3.124316e+001 -6.551305e+000  2.567799e+001
5.5243125000e+009 -1.054293e+001  9.421656e+001 -3.960306e+001  5.220068e+001  2.359512e+001 -3.134008e+001 -6.538335e+000  2.626886e+001
5.5244375000e+009 -1.049602e+001  9.485410e+001 -3.949879e+001  5.561100e+001  2.374188e+001 -3.153744e+001 -6.446848e+000  2.444640e+001
5.5245625000e+009 -1.055715e+001  9.452052e+001 -3.950906e+001  4.867749e+001  2.367538e+001 -3.153471e+001 -6.514100e+000  2.500433e+001
5.5246875000e+009 -1.061819e+001  9.419850e+001 -3.923152e+001  5.415191e+001  2.368716e+001 -3.232215e+001 -6.504213e+000  2.441155e+001
5.5248125000e+009 -1.031043e+001  9.463271e+001 -4.011782e+001  5.256293e+001  2.379495e+001 -3.271143e+001 -6.622980e+000  2.364491e+001
5.5249375000e+009 -1.046329e+001  9.348270e+001 -3.945140e+001  5.625855e+001  2.374458e+001 -3.252230e+001 -6.444785e+000  2.441189e+001
5.5250625000e+009 -1.035072e+001  9.491356e+001 -3.934226e+001  4.928361e+001  2.363902e+001 -3.246824e+001 -6.656296e+000  2.466302e+001
5.5251875000e+009 -1.037438e+001  9.396896e+001 -3.951091e+001  5.048878e+001  2.372337e+001 -3.305793e+001 -6.632303e+000  2.407559e+001
5.5253125000e+009 -1.032830e+001  9.309364e+001 -3.973514e+001  5.134817e+001  2.371385e+001 -3.311724e+001 -6.521818e+000  2.447603e+001
5.5254375000e+009 -1.032580e+001  9.318347e+001 -3.991617e+001  5.601585e+001  2.365076e+001 -3.283862e+001 -6.442535e+000  2.613721e+001
5.5255625000e+009 -1.014489e+001  9.345196e+001 -4.019977e+001  4.970687e+001  2.381294e+001 -3.322000e+001 -6.519976e+000  2.383421e+001
5.5256875000e+009 -1.025324e+001  9.292854e+001 -4.076150e+001  5.007063e+001  2.375184e+001 -3.369756e+001 -6.711097e+000  2.434878e+001
5.5258125000e+009 -1.025838e+001  9.341386e+001 -3.933744e+001  5.074142e+001  2.372058e+001 -3.369741e+001 -6.587784e+000  2.388869e+001
5.5259375000e+009 -1.015979e+001  9.325088e+001 -3.999107e+001  5.028918e+001  2.377992e+001 -3.364462e+001 -6.563900e+000  2.390556e+001
5.5260625000e+009 -1.021765e+001  9.323038e+001 -4.004250e+001  5.298566e+001  2.377666e+001 -3.397644e+001 -6.518484e+000  2.336684e+001
5.5261875000e+009 -1.032867e+001  9.215137e+001 -3.951835e+001  5.606387e+001  2.361060e+001 -3.442095e+001 -6.668737e+000  2.529050e+001
5.5263125000e+009 -1.003951e+001  9.276480e+001 -3.964350e+001  4.824751e+001  2.379929e+001 -3.493519e+001 -6.827667e+000  2.189254e+001
5.5264375000e+009 -1.014882e+001  9.223339e+001 -4.026995e+001  5.300592e+001  2.380466e+001 -3.485922e+001 -6.725748e+000  2.306055e+001
5.5265625000e+009 -1.015867e+001  9.188449e+001 -3.963506e+001  5.336907e+001  2.368224e+001 -3.498680e+001 -6.747283e+000  2.427020e+001
5.5266875000e+009 -1.004648e+001  9.244704e+001 -4.000428e+001  5.378645e+001  2.384474e+001 -3.515215e+001 -6.555035e+000  2.178050e+001
5.5268125000e+009 -1.006668e+001  9.195549e+001 -4.040726e+001  5.428733e+001  2.379244e+001 -3.516138e+001 -6.614711e+000  2.305989e+001
5.5269375000e+009 -1.006542e+001  9.128374e+001 -3.957134e+001  5.348516e+001  2.368326e+001 -3.540858e+001 -6.702568e+000  2.378844e+001
5.5270625000e+009 -9.968884e+000  9.225051e+001 -4.003026e+001  4.881717e+001  2.379061e+001 -3.560485e+001 -6.677467e+000  2.207154e+001
5.5271875000e+009 -9.958301e+000  9.162207e+001 -4.019007e+001  5.340467e+001  2.374494e+001 -3.610836e+001 -6.783335e+000  2.276993e+001
5.5273125000e+009 -9.962631e+000  9.167153e+001 -4.002829e+001  5.015253e+001  2.374317e+001 -3.626804e+001 -6.865310e+000  2.262211e+001
5.5274375000e+009 -9.902493e+000  9.201170e+001 -3.949015e+001  5.079453e+001  2.370603e+001 -3.596481e+001 -6.750947e+000  2.300572e+001
5.5275625000e+009 -9.851289e+000  9.126717e+001 -4.028814e+001  5.089259e+001  2.376398e+001 -3.652326e+001 -6.893087e+000  2.244325e+001
5.5276875000e+009 -9.841469e+000  9.151166e+001 -4.003420e+001  5.012346e+001  2.363941e+001 -3.686153e+001 -6.928048e+000  2.333327e+001
5.5278125000e+009 -9.832050e+000  9.112851e+001 -4.039054e+001  5.135751e+001  2.383399e+001 -3.701517e+001 -6.808928e+000  2.062761e+001
5.5279375000e+009 -9.822486e+000  9.099165e+001 -4.007998e+001  5.085847e+001  2.376397e+001 -3.704256e+001 -6.868142e+000  2.210232e+001
5.5280625000e+009 -9.814171e+000  9.020305e+001 -4.088063e+001  5.626907e+001  2.365286e+001 -3.755130e+001 -7.072471e+000  2.397470e+001
5.5281875000e+009 -9.801250e+000  9.076945e+001 -4.009279e+001  5.172986e+001  2.395376e+001 -3.735735e+001 -6.604824e+000  1.885661e+001
5.5283125000e+009 -9.741326e+000  9.095148e+001 -3.998005e+001  4.768811e+001  2.367872e+001 -3.759307e+001 -7.033822e+000  2.290532e+001
5.5284375000e+009 -9.756657e+000  9.055753e+001 -3.971183e+001  5.170571e+001  2.370493e+001 -3.776879e+001 -6.850259e+000  2.152831e+001
5.5285625000e+009 -9.664297e+000  9.076094e+001 -4.034970e+001  5.078451e+001  2.373531e+001 -3.830177e+001 -7.083006e+000  2.113254e+001
5.5286875000e+009 -9.675054e+000  9.098679e+001 -3.984945e+001  5.079187e+001  2.360557e+001 -3.846588e+001 -7.179270e+000  2.268676e+001
5.5288125000e+009 -9.643028e+000  9.045135e+001 -4.080441e+001  4.995024e+001  2.364736e+001 -3.844279e+001 -7.151132e+000  2.309012e+001
5.5289375000e+009 -9.628819e+000  9.027043e+001 -4.042559e+001  4.954007e+001  2.376221e+001 -3.873400e+001 -7.079940e+000  2.036174e+001
5.5290625000e+009 -9.623923e+000  9.053929e+001 -4.008836e+001  4.768749e+001  2.370723e+001 -3.861083e+001 -7.045734e+000  2.159370e+001
5.5291875000e+009 -9.571704e+000  8.995325e+001 -4.094611e+001  5.037483e+001  2.370896e+001 -3.915816e+001 -7.192266e+000  2.185992e+001
5.5293125000e+009 -9.593893e+000  9.024923e+001 -4.010323e+001  4.946331e+001  2.380779e+001 -3.901076e+001 -6.947161e+000  1.915198e+001
5.5294375000e+009 -9.567165e+000  9.008560e+001 -3.984101e+001  4.812256e+001  2.377143e+001 -3.944511e+001 -6.942750e+000  1.967751e+001
5.5295625000e+009 -9.515852e+000  8.945882e+001 -4.149172e+001  5.284723e+001  2.365398e+001 -3.984237e+001 -7.283950e+000  2.231746e+001
5.5296875000e+009 -9.535055e+000  8.956507e+001 -4.015747e+001  5.317124e+001  2.372136e+001 -4.017160e+001 -7.174415e+000  1.940821e+001
5.5298125000e+009 -9.512109e+000  8.937460e+001 -4.065145e+001  5.343411e+001  2.370549e+001 -4.016343e+001 -7.158283e+000  2.117004e+001
5.5299375000e+009 -9.471462e+000  8.933074e+001 -4.131094e+001  5.077532e+001  2.370045e+001 -4.037713e+001 -7.238402e+000  2.067558e+001
5.5300625000e+009 -9.446095e+000  8.938776e+001 -4.093087e+001  4.986745e+001  2.379316e+001 -4.018588e+001 -7.055299e+000  1.948442e+001
5.5301875000e+009 -9.417160e+000  8.927788e+001 -4.119382e+001  5.005955e+001  2.365461e+001 -4.088773e+001 -7.352152e+000  2.129848e+001
5.5303125000e+009 -9.386146e+000  8.905466e+001 -4.123646e+001  4.788387e+001  2.360370e+001 -4.108352e+001 -7.633621e+000  2.141748e+001
5.5304375000e+009 -9.381008e+000  8.897379e+001 -4.108418e+001  4.895725e+001  2.365710e+001 -4.119059e+001 -7.295181e+000  2.109689e+001
5.5305625000e+009 -9.398825e+000  8.890246e+001 -4.080994e+001  5.178735e+001  2.372015e+001 -4.139191e+001 -7.248582e+000  1.896646e+001
5.5306875000e+009 -9.379560e+000  8.887084e+001 -4.076277e+001  5.000820e+001  2.370460e+001 -4.119271e+001 -7.199967e+000  2.044921e+001
5.5308125000e+009 -9.350333e+000  8.879317e+001 -4.035766e+001  4.726572e+001  2.372244e+001 -4.190599e+001 -7.398493e+000  1.871364e+001
5.5309375000e+009 -9.320641e+000  8.866808e+001 -4.140369e+001  4.726717e+001  2.365687e+001 -4.174933e+001 -7.596729e+000  2.108856e+001
5.5310625000e+009 -9.318797e+000  8.878728e+001 -4.061867e+001  4.832333e+001  2.369802e+001 -4.192965e+001 -7.351224e+000  1.926391e+001
5.5311875000e+009 -9.299462e+000  8.857079e+001 -4.054699e+001  4.996414e+001  2.366567e+001 -4.234359e+001 -7.284731e+000  1.923635e+001
5.5313125000e+009 -9.269549e+000  8.851744e+001 -4.099629e+001  4.603799e+001  2.366628e+001 -4.237220e+001 -7.388502e+000  1.829890e+001
5.5314375000e+009 -9.259738e+000  8.833142e+001 -4.106203e+001  4.887274e+001  2.370313e+001 -4.266761e+001 -7.354952e+000  1.811660e+001
5.5315625000e+009 -9.225680e+000  8.821958e+001 -4.119025e+001  4.792147e+001  2.364491e+001 -4.302010e+001 -7.597945e+000  1.873911e+001
5.5316875000e+009 -9.207141e+000  8.810045e+001 -4.205589e+001  4.861234e+001  2.368282e+001 -4.319418e+001 -7.425170e+000  1.912829e+001
5.5318125000e+009 -9.234409e+000  8.826804e+001 -4.069859e+001  4.787766e+001  2.368986e+001 -4.317290e+001 -7.346292e+000  1.842552e+001
5.5319375000e+009 -9.204345e+000  8.796564e+001 -4.052399e+001  5.090291e+001  2.367636e+001 -4.352135e+001 -7.478479e+000  1.789536e+001
5.5320625000e+009 -9.164508e+000  8.777595e+001 -4.119825e+001  4.971310e+001  2.364695e+001 -4.381952e+001 -7.621928e+000  1.873568e+001
5.5321875000e+009 -9.166557e+000  8.792352e+001 -4.102839e+001  4.644752e+001  2.363625e+001 -4.378003e+001 -7.586113e+000  1.812154e+001
5.5323125000e+009 -9.164550e+000  8.774632e+001 -4.050157e+001  4.855386e+001  2.364861e+001 -4.403129e+001 -7.674838e+000  1.826569e+001
5.5324375000e+009 -9.119705e+000  8.757695e+001 -4.175539e+001  4.680404e+001  2.365716e+001 -4.457194e+001 -7.634381e+000  1.850282e+001
5.5325625000e+009 -9.145463e+000  8.752455e+001 -4.108252e+001  5.134148e+001  2.362566e+001 -4.470891e+001 -7.388208e+000  1.766952e+001
5.5326875000e+009 -9.111756e+000  8.737489e+001 -4.159593e+001  5.130584e+001  2.362771e+001 -4.483199e+001 -7.727332e+000  1.778207e+001
5.5328125000e+009 -9.071898e+000  8.717358e+001 -4.175471e+001  4.929581e+001  2.357108e+001 -4.516554e+001 -7.857264e+000  1.780464e+001
5.5329375000e+009 -9.087395e+000  8.741913e+001 -4.102400e+001  4.656149e+001  2.365017e+001 -4.490635e+001 -7.738387e+000  1.833190e+001
5.5330625000e+009 -9.077374e+000  8.701767e+001 -4.142506e+001  5.124593e+001  2.359031e+001 -4.561547e+001 -7.722486e+000  1.696596e+001
5.5331875000e+009 -9.058026e+000  8.708388e+001 -4.127704e+001  4.956146e+001  2.360401e+001 -4.578552e+001 -7.734561e+000  1.707049e+001
5.5333125000e+009 -9.060053e+000  8.695145e+001 -4.157726e+001  4.980889e+001  2.360401e+001 -4.571078e+001 -7.805226e+000  1.727871e+001
5.5334375000e+009 -9.022039e+000  8.707555e+001 -4.115898e+001  4.810458e+001  2.356541e+001 -4.586897e+001 -8.018188e+000  1.725065e+001
5.5335625000e+009 -9.020253e+000  8.682587e+001 -4.135369e+001  4.823078e+001  2.354991e+001 -4.639708e+001 -7.894676e+000  1.685368e+001
5.5336875000e+009 -9.032789e+000  8.708653e+001 -4.146739e+001  4.847345e+001  2.356140e+001 -4.661041e+001 -7.719989e+000  1.647909e+001
5.5338125000e+009 -9.005875e+000  8.667035e+001 -4.090137e+001  4.922759e+001  2.361581e+001 -4.627065e+001 -7.927862e+000  1.661051e+001
5.5339375000e+009 -8.990306e+000  8.668703e+001 -4.155787e+001  4.760433e+001  2.356618e+001 -4.670525e+001 -7.914682e+000  1.667058e+001
5.5340625000e+009 -8.950614e+000  8.659600e+001 -4.172440e+001  4.778066e+001  2.356319e+001 -4.674623e+001 -7.883276e+000  1.656631e+001
5.5341875000e+009 -8.959341e+000  8.668738e+001 -4.137922e+001  4.904106e+001  2.348825e+001 -4.727325e+001 -8.002913e+000  1.530798e+001
5.5343125000e+009 -8.942956e+000  8.630169e+001 -4.153033e+001  5.225619e+001  2.354211e+001 -4.772077e+001 -7.815207e+000  1.630569e+001
5.5344375000e+009 -8.966736e+000  8.632329e+001 -4.179197e+001  5.305291e+001  2.351317e+001 -4.787075e+001 -7.860754e+000  1.590455e+001
5.5345625000e+009 -8.920656e+000  8.619933e+001 -4.124929e+001  4.573917e+001  2.351884e+001 -4.780300e+001 -8.173214e+000  1.572001e+001
5.5346875000e+009 -8.896083e+000  8.602838e+001 -4.251012e+001  4.989726e+001  2.354506e+001 -4.795945e+001 -8.174612e+000  1.688266e+001
5.5348125000e+009 -8.935364e+000  8.612195e+001 -4.161088e+001  5.143455e+001  2.347164e+001 -4.824499e+001 -8.041073e+000  1.553239e+001
5.5349375000e+009 -8.893895e+000  8.615720e+001 -4.196054e+001  4.997727e+001  2.350350e+001 -4.836262e+001 -8.097188e+000  1.580769e+001
5.5350625000e+009 -8.856391e+000  8.590583e+001 -4.210950e+001  4.744188e+001  2.347364e+001 -4.853284e+001 -8.301793e+000  1.549397e+001
5.5351875000e+009 -8.885915e+000  8.603358e+001 -4.187308e+001  4.698709e+001  2.343973e+001 -4.873989e+001 -8.201611e+000  1.501859e+001
5.5353125000e+009 -8.837085e+000  8.580803e+001 -4.159585e+001  4.877467e+001  2.346000e+001 -4.864388e+001 -8.357285e+000  1.472780e+001
5.5354375000e+009 -8.824126e+000  8.580614e+001 -4.254214e+001  4.965197e+001  2.347988e+001 -4.937954e+001 -8.317064e+000  1.552626e+001
5.5355625000e+009 -8.835126e+000  8.567191e+001 -4.240933e+001  4.948464e+001  2.338768e+001 -4.960411e+001 -8.206993e+000  1.501045e+001
5.5356875000e+009 -8.849348e+000  8.552729e+001 -4.156707e+001  5.371597e+001  2.345225e+001 -4.957460e+001 -8.363546e+000  1.497221e+001
5.5358125000e+009 -8.809431e+000  8.546129e+001 -4.170502e+001  4.676842e+001  2.343511e+001 -4.993140e+001 -8.322638e+000  1.422310e+001
5.5359375000e+009 -8.843946e+000  8.562031e+001 -4.188837e+001  5.210463e+001  2.342554e+001 -5.005414e+001 -8.301791e+000  1.463190e+001
5.5360625000e+009 -8.772361e+000  8.535101e+001 -4.208648e+001  4.830212e+001  2.339939e+001 -5.065794e+001 -8.370590e+000  1.462532e+001
5.5361875000e+009 -8.762815e+000  8.541183e+001 -4.195370e+001  4.778602e+001  2.344722e+001 -5.061755e+001 -8.446650e+000  1.429466e+001
5.5363125000e+009 -8.807406e+000  8.543648e+001 -4.190812e+001  4.962790e+001  2.338245e+001 -5.069672e+001 -8.390591e+000  1.397285e+001
5.5364375000e+009 -8.709378e+000  8.523583e+001 -4.148394e+001  4.948751e+001  2.335082e+001 -5.066005e+001 -8.468312e+000  1.390884e+001
5.5365625000e+009 -8.746591e+000  8.513289e+001 -4.187814e+001  4.883690e+001  2.335587e+001 -5.044220e+001 -8.614923e+000  1.378446e+001
5.5366875000e+009 -8.760224e+000  8.530512e+001 -4.134123e+001  5.123722e+001  2.336438e+001 -5.145340e+001 -8.345986e+000  1.361427e+001
5.5368125000e+009 -8.773019e+000  8.525825e+001 -4.163936e+001  5.019234e+001  2.332801e+001 -5.099426e+001 -8.596563e+000  1.303201e+001
5.5369375000e+009 -8.724736e+000  8.511185e+001 -4.187685e+001  4.581716e+001  2.328250e+001 -5.147058e+001 -8.667761e+000  1.318880e+001
5.5370625000e+009 -8.734780e+000  8.520827e+001 -4.239309e+001  4.475217e+001  2.330460e+001 -5.191005e+001 -8.658649e+000  1.367098e+001
5.5371875000e+009 -8.728532e+000  8.511595e+001 -4.181751e+001  4.775322e+001  2.331339e+001 -5.199211e+001 -8.702545e+000  1.257553e+001
5.5373125000e+009 -8.712248e+000  8.479051e+001 -4.178241e+001  5.216285e+001  2.320811e+001 -5.124440e+001 -8.792044e+000  1.241676e+001
5.5374375000e+009 -8.696215e+000  8.499049e+001 -4.186510e+001  4.844824e+001  2.321309e+001 -5.232318e+001 -8.692606e+000  1.280885e+001
5.5375625000e+009 -8.640337e+000  8.467343e+001 -4.267389e+001  4.819856e+001  2.326964e+001 -5.244747e+001 -8.806116e+000  1.274150e+001
5.5376875000e+009 -8.660282e+000  8.469563e+001 -4.232842e+001  5.068855e+001  2.325330e+001 -5.227940e+001 -8.758412e+000  1.223248e+001
5.5378125000e+009 -8.737982e+000  8.483497e+001 -4.144003e+001  5.188359e+001  2.332737e+001 -5.297524e+001 -8.743834e+000  1.201736e+001
5.5379375000e+009 -8.604865e+000  8.469286e+001 -4.213226e+001  4.662018e+001  2.321808e+001 -5.346040e+001 -8.873874e+000  1.202695e+001
5.5380625000e+009 -8.606436e+000  8.456673e+001 -4.244970e+001  5.177899e+001  2.320246e+001 -5.363692e+001 -8.869915e+000  1.167930e+001
5.5381875000e+009 -8.652662e+000  8.476992e+001 -4.215754e+001  4.928677e+001  2.325184e+001 -5.374515e+001 -8.855365e+000  1.131812e+001
5.5383125000e+009 -8.618629e+000  8.469941e+001 -4.255720e+001  5.012824e+001  2.315584e+001 -5.384721e+001 -8.866569e+000  1.179004e+001
5.5384375000e+009 -8.601006e+000  8.481783e+001 -4.214455e+001  4.723188e+001  2.315474e+001 -5.367527e+001 -8.956560e+000  1.059968e+001
5.5385625000e+009 -8.627578e+000  8.494153e+001 -4.135785e+001  4.827166e+001  2.316013e+001 -5.428543e+001 -8.853341e+000  1.076171e+001
5.5386875000e+009 -8.629704e+000  8.460852e+001 -4.266870e+001  4.887555e+001  2.316414e+001 -5.429067e+001 -8.971551e+000  1.084610e+001
5.5388125000e+009 -8.577066e+000  8.484465e+001 -4.282766e+001  5.351610e+001  2.316579e+001 -5.397670e+001 -8.915729e+000  1.023943e+001
5.5389375000e+009 -8.597479e+000  8.490296e+001 -4.165587e+001  4.841931e+001  2.317885e+001 -5.442365e+001 -8.990657e+000  9.749751e+000
5.5390625000e+009 -8.525385e+000  8.492011e+001 -4.285756e+001  4.513394e+001  2.314302e+001 -5.408968e+001 -9.070832e+000  9.807687e+000
5.5391875000e+009 -8.538668e+000  8.463860e+001 -4.216253e+001  5.336914e+001  2.305148e+001 -5.454631e+001 -9.010999e+000  9.176326e+000
5.5393125000e+009 -8.548873e+000  8.474722e+001 -4.252539e+001  4.855818e+001  2.312266e+001 -5.497700e+001 -9.037885e+000  9.196806e+000
5.5394375000e+009 -8.511460e+000  8.475991e+001 -4.301011e+001  4.946931e+001  2.313192e+001 -5.562170e+001 -9.056383e+000  8.975522e+000
5.5395625000e+009 -8.504966e+000  8.458195e+001 -4.290167e+001  4.799657e+001  2.304840e+001 -5.518121e+001 -9.134275e+000  8.540799e+000
5.5396875000e+009 -8.546183e+000  8.468830e+001 -4.281273e+001  5.015152e+001  2.306068e+001 -5.533762e+001 -9.076956e+000  8.688718e+000
5.5398125000e+009 -8.503932e+000  8.492060e+001 -4.214051e+001  4.798260e+001  2.299112e+001 -5.490992e+001 -9.113487e+000  7.935649e+000
5.5399375000e+009 -8.483678e+000  8.489304e+001 -4.237833e+001  5.060311e+001  2.310145e+001 -5.554410e+001 -9.104440e+000  7.407476e+000
5.5400625000e+009 -8.527863e+000  8.472370e+001 -4.252155e+001  4.908742e+001  2.306258e+001 -5.617301e+001 -9.209581e+000  7.680997e+000
5.5401875000e+009 -8.488467e+000  8.470692e+001 -4.252928e+001  4.801863e+001  2.298221e+001 -5.656466e+001 -9.239961e+000  7.706503e+000
5.5403125000e+009 -8.466859e+000  8.485348e+001 -4.266555e+001  4.657050e+001  2.304261e+001 -5.688680e+001 -9.272930e+000  6.830670e+000
5.5404375000e+009 -8.458735e+000  8.496925e+001 -4.242944e+001  4.817026e+001  2.305290e+001 -5.727422e+001 -9.284751e+000  6.698941e+000
5.5405625000e+009 -8.495785e+000  8.480246e+001 -4.190439e+001  5.160117e+001  2.298764e+001 -5.645351e+001 -9.199369e+000  6.200019e+000
5.5406875000e+009 -8.465348e+000  8.464969e+001 -4.283043e+001  5.184532e+001  2.293438e+001 -5.599164e+001 -9.158392e+000  6.620148e+000
5.5408125000e+009 -8.459624e+000  8.495886e+001 -4.208090e+001  5.110005e+001  2.290895e+001 -5.710353e+001 -9.265806e+000  6.247408e+000
5.5409375000e+009 -8.437057e+000  8.495642e+001 -4.207848e+001  4.924216e+001  2.289211e+001 -5.682813e+001 -9.294586e+000  5.488444e+000
5.5410625000e+009 -8.444130e+000  8.478629e+001 -4.277003e+001  5.034907e+001  2.296569e+001 -5.763171e+001 -9.338149e+000  5.436987e+000
5.5411875000e+009 -8.453378e+000  8.471225e+001 -4.324990e+001  4.870771e+001  2.296930e+001 -5.791194e+001 -9.380036e+000  5.990894e+000
5.5413125000e+009 -8.449845e+000  8.475175e+001 -4.190012e+001  4.966667e+001  2.289876e+001 -5.768156e+001 -9.271640e+000  4.770561e+000
5.5414375000e+009 -8.404589e+000  8.476099e+001 -4.248235e+001  5.060561e+001  2.296087e+001 -5.837181e+001 -9.391893e+000  4.109653e+000
5.5415625000e+009 -8.413329e+000  8.490839e+001 -4.254211e+001  4.483728e+001  2.292480e+001 -5.850647e+001 -9.463243e+000  4.427622e+000
5.5416875000e+009 -8.423848e+000  8.462016e+001 -4.291063e+001  4.843070e+001  2.279398e+001 -5.804368e+001 -9.358402e+000  5.067071e+000
5.5418125000e+009 -8.408632e+000  8.471043e+001 -4.232041e+001  4.674928e+001  2.279605e+001 -5.818326e+001 -9.372689e+000  4.354134e+000
5.5419375000e+009 -8.417645e+000  8.475931e+001 -4.267191e+001  4.648115e+001  2.289092e+001 -5.867476e+001 -9.456823e+000  3.950605e+000
5.5420625000e+009 -8.376729e+000  8.467009e+001 -4.311698e+001  4.389619e+001  2.278343e+001 -5.852434e+001 -9.496511e+000  4.003551e+000
5.5421875000e+009 -8.380499e+000  8.469904e+001 -4.301190e+001  4.390930e+001  2.283274e+001 -5.933831e+001 -9.629426e+000  3.215665e+000
5.5423125000e+009 -8.395654e+000  8.466634e+001 -4.254559e+001  5.050754e+001  2.286875e+001 -5.894997e+001 -9.398037e+000  3.115139e+000
5.5424375000e+009 -8.390467e+000  8.482879e+001 -4.204928e+001  4.387829e+001  2.284476e+001 -5.896736e+001 -9.510785e+000  2.335675e+000
5.5425625000e+009 -8.334515e+000  8.503149e+001 -4.294548e+001  4.180333e+001  2.279559e+001 -5.905178e+001 -9.548434e+000  2.760257e+000
5.5426875000e+009 -8.362699e+000  8.478579e+001 -4.249776e+001  4.434236e+001  2.284932e+001 -5.973315e+001 -9.580976e+000  2.009621e+000
5.5428125000e+009 -8.363096e+000  8.475678e+001 -4.296728e+001  4.957815e+001  2.273543e+001 -5.973463e+001 -9.507284e+000  2.614644e+000
5.5429375000e+009 -8.367483e+000  8.485547e+001 -4.261616e+001  4.589302e+001  2.271024e+001 -5.960564e+001 -9.540258e+000  1.957250e+000
5.5430625000e+009 -8.374576e+000  8.478209e+001 -4.286906e+001  4.620950e+001  2.287520e+001 -5.976305e+001 -9.509986e+000  1.003656e+000
5.5431875000e+009 -8.350450e+000  8.477560e+001 -4.323065e+001  4.898585e+001  2.276509e+001 -6.009588e+001 -9.526979e+000  1.815910e+000
5.5433125000e+009 -8.361179e+000  8.489346e+001 -4.175901e+001  4.688039e+001  2.266060e+001 -6.023538e+001 -9.640198e+000  1.199260e+000
5.5434375000e+009 -8.335180e+000  8.468043e+001 -4.364212e+001  4.396329e+001  2.267519e+001 -6.069427e+001 -9.685715e+000  1.836311e+000
5.5435625000e+009 -8.348051e+000  8.482558e+001 -4.218457e+001  4.387178e+001  2.270181e+001 -6.043100e+001 -9.582241e+000  5.807272e-001
5.5436875000e+009 -8.341352e+000  8.485677e+001 -4.246586e+001  4.631236e+001  2.268941e+001 -6.075831e+001 -9.638987e+000  3.939267e-001
5.5438125000e+009 -8.336061e+000  8.488464e+001 -4.181071e+001  4.462561e+001  2.274260e+001 -6.095767e+001 -9.698975e+000 -5.552717e-001
5.5439375000e+009 -8.334453e+000  8.487064e+001 -4.244138e+001  4.605280e+001  2.269612e+001 -6.124256e+001 -9.713314e+000 -7.398360e-001
5.5440625000e+009 -8.313652e+000  8.484422e+001 -4.220600e+001  3.815959e+001  2.264775e+001 -6.122684e+001 -9.742009e+000 -5.899416e-001
5.5441875000e+009 -8.317612e+000  8.473820e+001 -4.377308e+001  4.323674e+001  2.262547e+001 -6.132801e+001 -9.759385e+000  5.368640e-001
5.5443125000e+009 -8.318412e+000  8.488442e+001 -4.253608e+001  4.546040e+001  2.271100e+001 -6.193734e+001 -9.837761e+000 -1.562655e+000
5.5444375000e+009 -8.301927e+000  8.480984e+001 -4.288151e+001  3.340217e+001  2.255700e+001 -6.189055e+001 -9.942093e+000 -3.138447e-001
5.5445625000e+009 -8.317043e+000  8.474790e+001 -4.270159e+001  4.408150e+001  2.264565e+001 -6.209901e+001 -9.768938e+000 -1.597448e+000
5.5446875000e+009 -8.307943e+000  8.477513e+001 -4.266519e+001  4.387491e+001  2.258571e+001 -6.202193e+001 -9.800159e+000 -8.974107e-001
5.5448125000e+009 -8.321069e+000  8.464864e+001 -4.286281e+001  4.556511e+001  2.260730e+001 -6.198976e+001 -9.727494e+000 -1.691809e+000
5.5449375000e+009 -8.302895e+000  8.479115e+001 -4.238610e+001  4.565642e+001  2.264050e+001 -6.215508e+001 -9.648730e+000 -2.019536e+000
5.5450625000e+009 -8.298003e+000  8.466275e+001 -4.342371e+001  4.380111e+001  2.257340e+001 -6.228159e+001 -9.670553e+000 -1.457530e+000
5.5451875000e+009 -8.310107e+000  8.477808e+001 -4.195849e+001  4.410272e+001  2.250812e+001 -6.262367e+001 -9.751886e+000 -1.960876e+000
5.5453125000e+009 -8.296414e+000  8.475862e+001 -4.257934e+001  4.251925e+001  2.256789e+001 -6.253188e+001 -9.864450e+000 -2.434558e+000
5.5454375000e+009 -8.301932e+000  8.475163e+001 -4.207685e+001  4.502578e+001  2.259200e+001 -6.308814e+001 -9.817429e+000 -3.538060e+000
5.5455625000e+009 -8.288757e+000  8.462153e+001 -4.319158e+001  4.238805e+001  2.249908e+001 -6.317781e+001 -9.778684e+000 -1.412537e+000
5.5456875000e+009 -8.300041e+000  8.474908e+001 -4.235526e+001  4.386853e+001  2.258234e+001 -6.306995e+001 -9.746196e+000 -3.333197e+000
5.5458125000e+009 -8.290380e+000  8.474197e+001 -4.285280e+001  4.625021e+001  2.255866e+001 -6.310759e+001 -9.606936e+000 -2.811164e+000
5.5459375000e+009 -8.283733e+000  8.461066e+001 -4.211961e+001  5.009597e+001  2.248999e+001 -6.356084e+001 -9.753455e+000 -2.920220e+000
5.5460625000e+009 -8.292851e+000  8.468351e+001 -4.239207e+001  4.696266e+001  2.253747e+001 -6.343704e+001 -9.697665e+000 -3.240906e+000
5.5461875000e+009 -8.295666e+000  8.472445e+001 -4.263367e+001  4.194455e+001  2.250275e+001 -6.374623e+001 -9.856448e+000 -3.218261e+000
5.5463125000e+009 -8.271165e+000  8.462281e+001 -4.305139e+001  4.425171e+001  2.247913e+001 -6.414729e+001 -9.926632e+000 -3.571979e+000
