# Hz  S  DB  R  50
! ADVANTEST Corporation R3860A
! Date: Wed Apr 11 19:53:42 2007
5.3463125000e+009 -4.845911e+000  2.148299e+000 -3.728170e+001 -3.125183e+001  2.669948e+001 -1.738346e+002 -5.096287e+000  7.594675e+001
5.3464375000e+009 -4.806810e+000  1.976487e+000 -3.747087e+001 -3.281789e+001  2.668248e+001 -1.739744e+002 -5.056447e+000  7.607880e+001
5.3465625000e+009 -4.807127e+000  1.878148e+000 -3.701979e+001 -3.166739e+001  2.665927e+001 -1.745196e+002 -5.135238e+000  7.621194e+001
5.3466875000e+009 -4.761485e+000  1.517631e+000 -3.691534e+001 -3.061432e+001  2.664699e+001 -1.743926e+002 -5.157231e+000  7.630284e+001
5.3468125000e+009 -4.729372e+000  1.613773e+000 -3.712905e+001 -3.513684e+001  2.667061e+001 -1.746742e+002 -5.202348e+000  7.629031e+001
5.3469375000e+009 -4.664000e+000  1.450691e+000 -3.774376e+001 -3.386232e+001  2.680057e+001 -1.756263e+002 -5.264291e+000  7.658241e+001
5.3470625000e+009 -4.643419e+000  1.327671e+000 -3.702980e+001 -3.749969e+001  2.663011e+001 -1.752076e+002 -5.211991e+000  7.634777e+001
5.3471875000e+009 -4.610953e+000  1.081084e+000 -3.714840e+001 -3.398039e+001  2.672178e+001 -1.761778e+002 -5.291862e+000  7.674395e+001
5.3473125000e+009 -4.573174e+000  1.110097e+000 -3.724585e+001 -3.754152e+001  2.671898e+001 -1.763795e+002 -5.288470e+000  7.677995e+001
5.3474375000e+009 -4.585942e+000  6.407089e-001 -3.656321e+001 -3.306460e+001  2.666953e+001 -1.766049e+002 -5.364453e+000  7.700592e+001
5.3475625000e+009 -4.504983e+000  8.242190e-001 -3.702606e+001 -3.782882e+001  2.659125e+001 -1.770050e+002 -5.298217e+000  7.654953e+001
5.3476875000e+009 -4.483553e+000  5.125008e-001 -3.694394e+001 -3.582708e+001  2.664456e+001 -1.773464e+002 -5.407248e+000  7.698100e+001
5.3478125000e+009 -4.434244e+000  3.900033e-001 -3.685898e+001 -3.710713e+001  2.659327e+001 -1.775652e+002 -5.399491e+000  7.682715e+001
5.3479375000e+009 -4.414949e+000 -4.220819e-002 -3.722008e+001 -3.063557e+001  2.669474e+001 -1.774902e+002 -5.545666e+000  7.690878e+001
5.3480625000e+009 -4.392510e+000  1.800847e-003 -3.666527e+001 -3.509805e+001  2.659224e+001 -1.782746e+002 -5.475858e+000  7.711639e+001
5.3481875000e+009 -4.332333e+000 -7.665324e-002 -3.694084e+001 -3.802277e+001  2.665165e+001 -1.781446e+002 -5.522056e+000  7.706425e+001
5.3483125000e+009 -4.287361e+000 -2.918672e-001 -3.735530e+001 -3.755654e+001  2.668601e+001 -1.779573e+002 -5.594623e+000  7.693978e+001
5.3484375000e+009 -4.275706e+000 -6.654333e-001 -3.652844e+001 -3.429284e+001  2.671053e+001 -1.787878e+002 -5.633794e+000  7.732890e+001
5.3485625000e+009 -4.231996e+000 -5.398818e-001 -3.659365e+001 -3.726995e+001  2.655394e+001 -1.791947e+002 -5.566218e+000  7.726737e+001
5.3486875000e+009 -4.202873e+000 -7.390738e-001 -3.672997e+001 -3.757179e+001  2.660650e+001 -1.793620e+002 -5.660748e+000  7.712698e+001
5.3488125000e+009 -4.185484e+000 -1.107559e+000 -3.645303e+001 -3.538032e+001  2.663790e+001 -1.798844e+002 -5.690913e+000  7.754272e+001
5.3489375000e+009 -4.096272e+000 -1.186699e+000 -3.726566e+001 -3.811880e+001  2.652795e+001  1.798332e+002 -5.685593e+000  7.693092e+001
5.3490625000e+009 -4.122130e+000 -1.219391e+000 -3.669920e+001 -3.983984e+001  2.653280e+001  1.793681e+002 -5.686584e+000  7.739560e+001
5.3491875000e+009 -4.046545e+000 -1.569712e+000 -3.701504e+001 -3.681435e+001  2.654444e+001  1.790913e+002 -5.759061e+000  7.744219e+001
5.3493125000e+009 -4.060008e+000 -1.470979e+000 -3.631180e+001 -3.805157e+001  2.639226e+001  1.784787e+002 -5.690888e+000  7.745040e+001
5.3494375000e+009 -4.018889e+000 -1.626123e+000 -3.633141e+001 -3.844274e+001  2.668892e+001  1.786812e+002 -5.848416e+000  7.826761e+001
5.3495625000e+009 -3.957188e+000 -2.075035e+000 -3.640239e+001 -3.443617e+001  2.661643e+001  1.786859e+002 -5.909112e+000  7.789317e+001
5.3496875000e+009 -3.944054e+000 -2.129536e+000 -3.598803e+001 -3.899530e+001  2.647841e+001  1.780168e+002 -5.817393e+000  7.790012e+001
5.3498125000e+009 -3.940655e+000 -1.979431e+000 -3.606078e+001 -4.088023e+001  2.661954e+001  1.780935e+002 -5.881037e+000  7.816990e+001
5.3499375000e+009 -3.863606e+000 -2.403430e+000 -3.599803e+001 -4.015873e+001  2.656993e+001  1.783047e+002 -5.938127e+000  7.805208e+001
5.3500625000e+009 -3.803685e+000 -2.555464e+000 -3.635799e+001 -3.976011e+001  2.639678e+001  1.769752e+002 -5.876259e+000  7.759554e+001
5.3501875000e+009 -3.816865e+000 -2.833292e+000 -3.636285e+001 -3.756471e+001  2.657603e+001  1.767339e+002 -5.971498e+000  7.844670e+001
5.3503125000e+009 -3.806411e+000 -2.811160e+000 -3.655958e+001 -4.068950e+001  2.664815e+001  1.770825e+002 -6.056097e+000  7.812523e+001
5.3504375000e+009 -3.680591e+000 -3.039472e+000 -3.627741e+001 -3.798268e+001  2.643190e+001  1.760812e+002 -5.958903e+000  7.827495e+001
5.3505625000e+009 -3.679478e+000 -2.710341e+000 -3.601394e+001 -4.109093e+001  2.652030e+001  1.761445e+002 -5.995781e+000  7.841026e+001
5.3506875000e+009 -3.624113e+000 -3.240980e+000 -3.668176e+001 -4.196912e+001  2.655589e+001  1.764333e+002 -6.119088e+000  7.804170e+001
5.3508125000e+009 -3.536849e+000 -3.375076e+000 -3.591795e+001 -3.836900e+001  2.643369e+001  1.753237e+002 -6.070440e+000  7.842636e+001
5.3509375000e+009 -3.545003e+000 -3.138893e+000 -3.645271e+001 -4.142283e+001  2.648883e+001  1.756801e+002 -6.110051e+000  7.825725e+001
5.3510625000e+009 -3.521376e+000 -3.115886e+000 -3.577235e+001 -4.216702e+001  2.653544e+001  1.755108e+002 -6.154649e+000  7.882346e+001
5.3511875000e+009 -3.405024e+000 -3.589704e+000 -3.588214e+001 -3.993597e+001  2.646891e+001  1.743534e+002 -6.100138e+000  7.897537e+001
5.3513125000e+009 -3.379785e+000 -3.752331e+000 -3.637331e+001 -3.840068e+001  2.648321e+001  1.747926e+002 -6.219282e+000  7.868070e+001
5.3514375000e+009 -3.402601e+000 -3.670765e+000 -3.571213e+001 -4.097142e+001  2.653192e+001  1.746185e+002 -6.240258e+000  7.920569e+001
5.3515625000e+009 -3.332526e+000 -3.910362e+000 -3.592044e+001 -3.954429e+001  2.635190e+001  1.736818e+002 -6.176040e+000  7.888200e+001
5.3516875000e+009 -3.247939e+000 -3.999732e+000 -3.600291e+001 -4.148393e+001  2.642651e+001  1.733100e+002 -6.185103e+000  7.944650e+001
5.3518125000e+009 -3.220716e+000 -4.115966e+000 -3.613485e+001 -4.137367e+001  2.648393e+001  1.737213e+002 -6.316271e+000  7.923930e+001
5.3519375000e+009 -3.124144e+000 -4.271560e+000 -3.603100e+001 -4.262054e+001  2.637228e+001  1.727679e+002 -6.236896e+000  7.913324e+001
5.3520625000e+009 -3.148565e+000 -4.046391e+000 -3.634336e+001 -4.577999e+001  2.643547e+001  1.735624e+002 -6.307618e+000  7.895021e+001
5.3521875000e+009 -3.077047e+000 -4.125623e+000 -3.602821e+001 -4.250019e+001  2.640935e+001  1.730303e+002 -6.393279e+000  7.920961e+001
5.3523125000e+009 -3.062541e+000 -4.673409e+000 -3.557029e+001 -4.023064e+001  2.637926e+001  1.729314e+002 -6.420360e+000  7.953020e+001
5.3524375000e+009 -2.998916e+000 -4.626999e+000 -3.578826e+001 -4.324197e+001  2.639506e+001  1.725023e+002 -6.357074e+000  7.975767e+001
5.3525625000e+009 -2.989965e+000 -4.749990e+000 -3.585832e+001 -4.251822e+001  2.633851e+001  1.718589e+002 -6.405619e+000  7.960665e+001
5.3526875000e+009 -2.850482e+000 -4.531663e+000 -3.529575e+001 -4.427367e+001  2.634671e+001  1.722192e+002 -6.414869e+000  7.974692e+001
5.3528125000e+009 -2.895259e+000 -5.067506e+000 -3.554646e+001 -4.272511e+001  2.626925e+001  1.716213e+002 -6.394045e+000  7.964828e+001
5.3529375000e+009 -2.830102e+000 -5.343881e+000 -3.654539e+001 -4.163525e+001  2.628951e+001  1.717310e+002 -6.565184e+000  7.935194e+001
5.3530625000e+009 -2.791090e+000 -4.896219e+000 -3.536520e+001 -4.405444e+001  2.638234e+001  1.720698e+002 -6.533075e+000  7.982864e+001
5.3531875000e+009 -2.736479e+000 -5.248216e+000 -3.551466e+001 -4.431084e+001  2.634719e+001  1.709971e+002 -6.540937e+000  8.012336e+001
5.3533125000e+009 -2.691612e+000 -5.716877e+000 -3.587849e+001 -4.278534e+001  2.631288e+001  1.711991e+002 -6.556208e+000  7.969263e+001
5.3534375000e+009 -2.640940e+000 -5.303208e+000 -3.548419e+001 -4.577244e+001  2.624293e+001  1.700083e+002 -6.469503e+000  8.014393e+001
5.3535625000e+009 -2.620374e+000 -5.806926e+000 -3.576027e+001 -4.226073e+001  2.625395e+001  1.701816e+002 -6.558351e+000  8.012056e+001
5.3536875000e+009 -2.535469e+000 -5.419482e+000 -3.608752e+001 -4.495005e+001  2.627472e+001  1.699698e+002 -6.563879e+000  8.014065e+001
5.3538125000e+009 -2.479186e+000 -6.020187e+000 -3.558649e+001 -4.440055e+001  2.630681e+001  1.700942e+002 -6.637262e+000  8.052312e+001
5.3539375000e+009 -2.505698e+000 -5.884380e+000 -3.523025e+001 -4.592183e+001  2.627780e+001  1.697854e+002 -6.629964e+000  8.056907e+001
5.3540625000e+009 -2.429318e+000 -6.177763e+000 -3.550247e+001 -4.453556e+001  2.620333e+001  1.696442e+002 -6.638237e+000  8.010181e+001
5.3541875000e+009 -2.355058e+000 -6.349571e+000 -3.583887e+001 -4.387345e+001  2.618968e+001  1.683985e+002 -6.561212e+000  8.063942e+001
5.3543125000e+009 -2.357125e+000 -6.507563e+000 -3.606612e+001 -4.796695e+001  2.621843e+001  1.688052e+002 -6.616743e+000  8.008594e+001
5.3544375000e+009 -2.317216e+000 -6.587518e+000 -3.547800e+001 -4.499102e+001  2.621846e+001  1.692549e+002 -6.808038e+000  8.039603e+001
5.3545625000e+009 -2.263159e+000 -6.632748e+000 -3.598129e+001 -4.712105e+001  2.617534e+001  1.681096e+002 -6.635531e+000  8.040939e+001
5.3546875000e+009 -2.250905e+000 -6.777189e+000 -3.604604e+001 -5.028529e+001  2.617344e+001  1.682658e+002 -6.672584e+000  8.020219e+001
5.3548125000e+009 -2.188814e+000 -6.971279e+000 -3.590103e+001 -4.315641e+001  2.619060e+001  1.682381e+002 -6.791129e+000  8.063712e+001
5.3549375000e+009 -2.169638e+000 -6.510585e+000 -3.552125e+001 -4.255966e+001  2.615651e+001  1.679859e+002 -6.781744e+000  8.090166e+001
5.3550625000e+009 -2.107267e+000 -6.940586e+000 -3.546097e+001 -4.390429e+001  2.613699e+001  1.676156e+002 -6.760985e+000  8.097082e+001
5.3551875000e+009 -2.086895e+000 -6.869737e+000 -3.550426e+001 -4.626676e+001  2.607034e+001  1.673300e+002 -6.792707e+000  8.053484e+001
5.3553125000e+009 -2.087808e+000 -7.200140e+000 -3.558160e+001 -4.356700e+001  2.611246e+001  1.672733e+002 -6.851470e+000  8.104082e+001
5.3554375000e+009 -1.991648e+000 -7.462515e+000 -3.517653e+001 -5.033358e+001  2.607824e+001  1.674595e+002 -6.857751e+000  8.004505e+001
5.3555625000e+009 -1.959123e+000 -6.997003e+000 -3.518449e+001 -4.940000e+001  2.609479e+001  1.668970e+002 -6.790864e+000  8.056332e+001
5.3556875000e+009 -1.925341e+000 -7.210235e+000 -3.514395e+001 -4.817906e+001  2.612545e+001  1.657757e+002 -6.738128e+000  8.196230e+001
5.3558125000e+009 -1.904496e+000 -7.602095e+000 -3.607159e+001 -4.489621e+001  2.606290e+001  1.658515e+002 -6.835893e+000  8.104539e+001
5.3559375000e+009 -1.854908e+000 -7.725976e+000 -3.560491e+001 -4.746472e+001  2.607173e+001  1.661751e+002 -6.890329e+000  8.088599e+001
5.3560625000e+009 -1.835677e+000 -7.956731e+000 -3.526984e+001 -4.649781e+001  2.606401e+001  1.657500e+002 -6.944080e+000  8.150353e+001
5.3561875000e+009 -1.797950e+000 -8.074423e+000 -3.530040e+001 -4.975337e+001  2.601879e+001  1.653152e+002 -6.842137e+000  8.116407e+001
5.3563125000e+009 -1.785567e+000 -7.808883e+000 -3.531737e+001 -4.995600e+001  2.599122e+001  1.655908e+002 -6.841363e+000  8.037455e+001
5.3564375000e+009 -1.751497e+000 -8.136778e+000 -3.558956e+001 -5.008186e+001  2.602984e+001  1.649746e+002 -6.892518e+000  8.096803e+001
5.3565625000e+009 -1.720449e+000 -8.396503e+000 -3.579916e+001 -4.973340e+001  2.601208e+001  1.647057e+002 -6.856259e+000  8.140871e+001
5.3566875000e+009 -1.675086e+000 -8.016086e+000 -3.494451e+001 -4.800434e+001  2.599100e+001  1.650553e+002 -6.922907e+000  8.095695e+001
5.3568125000e+009 -1.612999e+000 -8.426023e+000 -3.513742e+001 -5.072579e+001  2.600813e+001  1.644784e+002 -6.874033e+000  8.187566e+001
5.3569375000e+009 -1.611681e+000 -8.940986e+000 -3.547609e+001 -5.327656e+001  2.597566e+001  1.644248e+002 -6.913208e+000  8.103590e+001
5.3570625000e+009 -1.626974e+000 -8.736002e+000 -3.544464e+001 -4.905399e+001  2.594213e+001  1.641649e+002 -6.956205e+000  8.123563e+001
5.3571875000e+009 -1.543550e+000 -8.661786e+000 -3.570548e+001 -5.148203e+001  2.597569e+001  1.639133e+002 -7.025528e+000  8.175401e+001
5.3573125000e+009 -1.513569e+000 -8.572440e+000 -3.543202e+001 -4.789077e+001  2.600767e+001  1.635714e+002 -6.998546e+000  8.260565e+001
5.3574375000e+009 -1.480410e+000 -8.984734e+000 -3.545704e+001 -5.116556e+001  2.592774e+001  1.633064e+002 -7.010495e+000  8.142561e+001
5.3575625000e+009 -1.476160e+000 -9.069492e+000 -3.478883e+001 -5.141331e+001  2.595044e+001  1.631975e+002 -7.008634e+000  8.236259e+001
5.3576875000e+009 -1.377210e+000 -9.742107e+000 -3.497691e+001 -4.892158e+001  2.597646e+001  1.623823e+002 -6.848673e+000  8.337749e+001
5.3578125000e+009 -1.393065e+000 -9.459813e+000 -3.514851e+001 -4.693091e+001  2.588336e+001  1.625968e+002 -6.984977e+000  8.167505e+001
5.3579375000e+009 -1.420620e+000 -9.321529e+000 -3.538038e+001 -5.090926e+001  2.591271e+001  1.624873e+002 -6.975938e+000  8.211945e+001
5.3580625000e+009 -1.327662e+000 -9.229095e+000 -3.524413e+001 -4.906866e+001  2.589202e+001  1.622350e+002 -6.985573e+000  8.277984e+001
5.3581875000e+009 -1.312574e+000 -9.356977e+000 -3.499316e+001 -5.259842e+001  2.588277e+001  1.621243e+002 -6.986076e+000  8.213561e+001
5.3583125000e+009 -1.290906e+000 -9.507619e+000 -3.507853e+001 -5.291368e+001  2.585789e+001  1.619842e+002 -7.073685e+000  8.216853e+001
5.3584375000e+009 -1.248803e+000 -9.824779e+000 -3.513599e+001 -4.750744e+001  2.586461e+001  1.616276e+002 -7.013582e+000  8.270189e+001
5.3585625000e+009 -1.175714e+000 -9.656913e+000 -3.484709e+001 -4.917216e+001  2.583712e+001  1.614492e+002 -6.997113e+000  8.238971e+001
5.3586875000e+009 -1.176632e+000 -9.781501e+000 -3.508743e+001 -5.140383e+001  2.583170e+001  1.613057e+002 -7.072713e+000  8.256307e+001
5.3588125000e+009 -1.183012e+000 -9.710577e+000 -3.521031e+001 -5.027439e+001  2.585566e+001  1.610443e+002 -7.022376e+000  8.338853e+001
5.3589375000e+009 -1.142829e+000 -1.007464e+001 -3.556726e+001 -5.251266e+001  2.582684e+001  1.605585e+002 -7.060287e+000  8.240353e+001
5.3590625000e+009 -1.110691e+000 -9.843277e+000 -3.459287e+001 -4.982475e+001  2.581199e+001  1.607157e+002 -6.969138e+000  8.364080e+001
5.3591875000e+009 -1.042728e+000 -1.017835e+001 -3.510455e+001 -5.236662e+001  2.579326e+001  1.604593e+002 -7.064858e+000  8.314273e+001
5.3593125000e+009 -1.053481e+000 -1.013673e+001 -3.490840e+001 -5.258861e+001  2.580893e+001  1.602451e+002 -7.005483e+000  8.294868e+001
5.3594375000e+009 -1.071850e+000 -1.014639e+001 -3.524422e+001 -5.394114e+001  2.576534e+001  1.599627e+002 -7.061772e+000  8.326929e+001
5.3595625000e+009 -1.010743e+000 -1.047404e+001 -3.499504e+001 -5.133582e+001  2.575790e+001  1.596245e+002 -7.102275e+000  8.338745e+001
5.3596875000e+009 -9.978692e-001 -1.035824e+001 -3.577213e+001 -5.294759e+001  2.575104e+001  1.594579e+002 -7.135312e+000  8.271228e+001
5.3598125000e+009 -9.191251e-001 -1.035761e+001 -3.488317e+001 -5.145208e+001  2.575066e+001  1.593074e+002 -7.019808e+000  8.347256e+001
5.3599375000e+009 -9.132723e-001 -1.054036e+001 -3.562480e+001 -5.270999e+001  2.573557e+001  1.592810e+002 -7.013191e+000  8.359058e+001
5.3600625000e+009 -8.320952e-001 -1.091188e+001 -3.506289e+001 -5.242610e+001  2.573292e+001  1.591119e+002 -7.008914e+000  8.291985e+001
5.3601875000e+009 -8.529431e-001 -1.068023e+001 -3.487571e+001 -5.220571e+001  2.569354e+001  1.587523e+002 -7.112198e+000  8.400329e+001
5.3603125000e+009 -8.169717e-001 -1.079830e+001 -3.502385e+001 -5.006804e+001  2.566038e+001  1.584663e+002 -7.142092e+000  8.490826e+001
5.3604375000e+009 -7.279302e-001 -1.122840e+001 -3.460959e+001 -5.483578e+001  2.572364e+001  1.580688e+002 -6.980136e+000  8.332635e+001
5.3605625000e+009 -8.037088e-001 -1.089134e+001 -3.457449e+001 -5.611122e+001  2.568286e+001  1.579198e+002 -7.035678e+000  8.313200e+001
5.3606875000e+009 -7.426848e-001 -1.105104e+001 -3.557500e+001 -5.219632e+001  2.567515e+001  1.581217e+002 -7.135272e+000  8.465798e+001
5.3608125000e+009 -7.196552e-001 -1.114344e+001 -3.512111e+001 -5.319923e+001  2.570141e+001  1.575618e+002 -7.033262e+000  8.341298e+001
5.3609375000e+009 -6.776841e-001 -1.134159e+001 -3.469661e+001 -5.531240e+001  2.565308e+001  1.575782e+002 -7.054362e+000  8.415247e+001
5.3610625000e+009 -6.575392e-001 -1.119955e+001 -3.473019e+001 -5.702959e+001  2.568111e+001  1.571949e+002 -7.054360e+000  8.380801e+001
5.3611875000e+009 -6.418884e-001 -1.142560e+001 -3.581754e+001 -5.149648e+001  2.565061e+001  1.568023e+002 -7.206189e+000  8.367179e+001
5.3613125000e+009 -5.928984e-001 -1.150721e+001 -3.492323e+001 -5.035414e+001  2.558377e+001  1.568816e+002 -7.142693e+000  8.537704e+001
5.3614375000e+009 -5.656621e-001 -1.146685e+001 -3.493335e+001 -5.625146e+001  2.563250e+001  1.567043e+002 -7.102470e+000  8.398740e+001
5.3615625000e+009 -5.710824e-001 -1.130601e+001 -3.503742e+001 -4.751233e+001  2.558672e+001  1.564426e+002 -7.156082e+000  8.534985e+001
5.3616875000e+009 -5.377418e-001 -1.157843e+001 -3.460374e+001 -5.421094e+001  2.556713e+001  1.562224e+002 -7.101489e+000  8.471857e+001
5.3618125000e+009 -5.126312e-001 -1.158811e+001 -3.443315e+001 -5.177199e+001  2.559826e+001  1.561288e+002 -6.982306e+000  8.488122e+001
5.3619375000e+009 -4.849879e-001 -1.174678e+001 -3.491273e+001 -5.478161e+001  2.560722e+001  1.557543e+002 -7.033428e+000  8.477669e+001
5.3620625000e+009 -4.501553e-001 -1.175241e+001 -3.490380e+001 -5.327855e+001  2.552203e+001  1.555908e+002 -7.149606e+000  8.495053e+001
5.3621875000e+009 -3.925720e-001 -1.179720e+001 -3.440124e+001 -5.394283e+001  2.549969e+001  1.555300e+002 -7.054379e+000  8.540207e+001
5.3623125000e+009 -3.973343e-001 -1.174418e+001 -3.461910e+001 -4.890350e+001  2.556394e+001  1.552920e+002 -7.020414e+000  8.526725e+001
5.3624375000e+009 -3.772989e-001 -1.189001e+001 -3.482495e+001 -5.471718e+001  2.553711e+001  1.549321e+002 -7.081522e+000  8.498391e+001
5.3625625000e+009 -3.407653e-001 -1.180588e+001 -3.426622e+001 -5.812726e+001  2.552149e+001  1.546382e+002 -7.038967e+000  8.461412e+001
5.3626875000e+009 -3.081983e-001 -1.218656e+001 -3.441575e+001 -5.662865e+001  2.558941e+001  1.546168e+002 -6.980906e+000  8.461626e+001
5.3628125000e+009 -2.910480e-001 -1.208036e+001 -3.481544e+001 -5.368661e+001  2.545459e+001  1.543974e+002 -7.092758e+000  8.582208e+001
5.3629375000e+009 -2.748618e-001 -1.194002e+001 -3.462283e+001 -5.437321e+001  2.539659e+001  1.541947e+002 -7.194667e+000  8.600765e+001
5.3630625000e+009 -2.548526e-001 -1.203884e+001 -3.407434e+001 -5.510979e+001  2.548463e+001  1.541016e+002 -6.984879e+000  8.558658e+001
5.3631875000e+009 -2.468954e-001 -1.209098e+001 -3.445724e+001 -5.686337e+001  2.548047e+001  1.540832e+002 -6.964577e+000  8.599278e+001
5.3633125000e+009 -2.003632e-001 -1.196487e+001 -3.493164e+001 -5.401749e+001  2.547869e+001  1.538876e+002 -7.153693e+000  8.618001e+001
5.3634375000e+009 -1.787073e-001 -1.204662e+001 -3.424030e+001 -5.387365e+001  2.548160e+001  1.533409e+002 -7.071215e+000  8.611785e+001
5.3635625000e+009 -1.485580e-001 -1.221705e+001 -3.439145e+001 -5.707816e+001  2.543707e+001  1.533048e+002 -7.136012e+000  8.614555e+001
5.3636875000e+009 -1.373966e-001 -1.204915e+001 -3.436365e+001 -5.550780e+001  2.545424e+001  1.528937e+002 -7.149091e+000  8.619980e+001
5.3638125000e+009 -1.422448e-001 -1.181209e+001 -3.438579e+001 -5.470801e+001  2.550194e+001  1.528742e+002 -7.110015e+000  8.631838e+001
5.3639375000e+009 -1.067977e-001 -1.216974e+001 -3.438666e+001 -5.677764e+001  2.548993e+001  1.525577e+002 -7.140896e+000  8.642442e+001
5.3640625000e+009 -6.502208e-002 -1.230450e+001 -3.454624e+001 -5.968529e+001  2.542374e+001  1.520665e+002 -7.241406e+000  8.623569e+001
5.3641875000e+009 -6.691896e-002 -1.234639e+001 -3.462391e+001 -5.620760e+001  2.545008e+001  1.522778e+002 -7.149422e+000  8.685836e+001
5.3643125000e+009 -1.341713e-002 -1.228738e+001 -3.444788e+001 -5.534113e+001  2.547299e+001  1.519030e+002 -7.212564e+000  8.704276e+001
5.3644375000e+009  1.219755e-002 -1.216736e+001 -3.454045e+001 -5.620087e+001  2.541169e+001  1.519349e+002 -7.203637e+000  8.743277e+001
5.3645625000e+009 -2.606661e-002 -1.235348e+001 -3.438765e+001 -5.526884e+001  2.546375e+001  1.519555e+002 -7.136943e+000  8.724351e+001
5.3646875000e+009  3.225393e-002 -1.225693e+001 -3.400367e+001 -5.623376e+001  2.528529e+001  1.516691e+002 -7.217425e+000  8.800356e+001
5.3648125000e+009  6.047482e-002 -1.234313e+001 -3.450718e+001 -5.150011e+001  2.534515e+001  1.512909e+002 -7.260544e+000  8.806492e+001
5.3649375000e+009  7.116855e-002 -1.235118e+001 -3.449611e+001 -5.769319e+001  2.537471e+001  1.510993e+002 -7.246466e+000  8.792683e+001
5.3650625000e+009  7.846382e-002 -1.240915e+001 -3.471543e+001 -6.009577e+001  2.535507e+001  1.511860e+002 -7.261752e+000  8.805948e+001
5.3651875000e+009  1.530338e-001 -1.224505e+001 -3.344812e+001 -5.600838e+001  2.532332e+001  1.505756e+002 -7.158993e+000  8.797639e+001
5.3653125000e+009  9.954122e-002 -1.229083e+001 -3.408224e+001 -6.173952e+001  2.545411e+001  1.505423e+002 -7.182846e+000  8.766115e+001
5.3654375000e+009  1.733545e-001 -1.239606e+001 -3.445113e+001 -5.850830e+001  2.540814e+001  1.513235e+002 -7.132170e+000  8.889922e+001
5.3655625000e+009  1.647504e-001 -1.236808e+001 -3.423500e+001 -5.997765e+001  2.539358e+001  1.504087e+002 -7.241749e+000  8.797849e+001
5.3656875000e+009  2.194346e-001 -1.241928e+001 -3.424025e+001 -6.393767e+001  2.531930e+001  1.498784e+002 -7.316662e+000  8.826888e+001
5.3658125000e+009  2.518757e-001 -1.253286e+001 -3.380188e+001 -6.135205e+001  2.528967e+001  1.496588e+002 -7.281108e+000  8.866460e+001
5.3659375000e+009  1.963236e-001 -1.238404e+001 -3.489269e+001 -5.946429e+001  2.529278e+001  1.497113e+002 -7.342277e+000  8.943969e+001
5.3660625000e+009  2.350536e-001 -1.252780e+001 -3.469515e+001 -5.680667e+001  2.531057e+001  1.494907e+002 -7.281784e+000  8.932265e+001
5.3661875000e+009  2.539555e-001 -1.285903e+001 -3.410340e+001 -5.957219e+001  2.527928e+001  1.492585e+002 -7.274476e+000  8.940742e+001
5.3663125000e+009  3.369328e-001 -1.261527e+001 -3.408906e+001 -5.795173e+001  2.524150e+001  1.488599e+002 -7.285451e+000  8.965581e+001
5.3664375000e+009  2.859453e-001 -1.246325e+001 -3.463194e+001 -5.493620e+001  2.530138e+001  1.493406e+002 -7.293062e+000  9.038037e+001
5.3665625000e+009  3.343612e-001 -1.284654e+001 -3.414349e+001 -5.912896e+001  2.530428e+001  1.485309e+002 -7.305895e+000  8.956400e+001
5.3666875000e+009  3.463212e-001 -1.266524e+001 -3.459623e+001 -6.128855e+001  2.523616e+001  1.475983e+002 -7.446176e+000  8.975156e+001
5.3668125000e+009  2.935085e-001 -1.260852e+001 -3.474112e+001 -6.244296e+001  2.522974e+001  1.488556e+002 -7.351453e+000  9.025418e+001
5.3669375000e+009  3.930435e-001 -1.272401e+001 -3.393837e+001 -5.929109e+001  2.534798e+001  1.485870e+002 -7.252918e+000  9.016470e+001
5.3670625000e+009  3.941128e-001 -1.279848e+001 -3.390710e+001 -6.183807e+001  2.513608e+001  1.472095e+002 -7.367605e+000  8.996336e+001
5.3671875000e+009  4.154894e-001 -1.319459e+001 -3.468157e+001 -6.002566e+001  2.523005e+001  1.480957e+002 -7.349349e+000  9.085109e+001
5.3673125000e+009  4.612110e-001 -1.286873e+001 -3.380309e+001 -6.093494e+001  2.532001e+001  1.484699e+002 -7.227568e+000  9.043217e+001
5.3674375000e+009  4.520179e-001 -1.283834e+001 -3.430071e+001 -6.320811e+001  2.517593e+001  1.475507e+002 -7.372985e+000  9.072373e+001
5.3675625000e+009  4.527190e-001 -1.310929e+001 -3.430743e+001 -6.104351e+001  2.520525e+001  1.485750e+002 -7.273393e+000  9.159570e+001
5.3676875000e+009  4.666581e-001 -1.314032e+001 -3.413947e+001 -6.089706e+001  2.520745e+001  1.481167e+002 -7.282515e+000  9.156561e+001
5.3678125000e+009  4.624255e-001 -1.323826e+001 -3.436991e+001 -6.153881e+001  2.526832e+001  1.474266e+002 -7.295519e+000  9.147256e+001
5.3679375000e+009  5.090974e-001 -1.339149e+001 -3.470797e+001 -5.868802e+001  2.526540e+001  1.471350e+002 -7.334372e+000  9.206879e+001
5.3680625000e+009  5.985259e-001 -1.277493e+001 -3.461540e+001 -5.925735e+001  2.517051e+001  1.458511e+002 -7.412044e+000  9.186969e+001
5.3681875000e+009  5.927110e-001 -1.314287e+001 -3.486591e+001 -6.041752e+001  2.516751e+001  1.468206e+002 -7.395610e+000  9.227105e+001
5.3683125000e+009  5.568255e-001 -1.306592e+001 -3.426671e+001 -6.339990e+001  2.517955e+001  1.470220e+002 -7.340346e+000  9.210475e+001
5.3684375000e+009  5.690011e-001 -1.294226e+001 -3.443748e+001 -6.182280e+001  2.517535e+001  1.466632e+002 -7.338617e+000  9.221786e+001
5.3685625000e+009  5.845355e-001 -1.393719e+001 -3.417809e+001 -6.191811e+001  2.517226e+001  1.454753e+002 -7.380673e+000  9.215133e+001
5.3686875000e+009  6.549177e-001 -1.364814e+001 -3.463663e+001 -6.394393e+001  2.526770e+001  1.459653e+002 -7.403424e+000  9.257648e+001
5.3688125000e+009  6.292851e-001 -1.393973e+001 -3.394796e+001 -6.539774e+001  2.512928e+001  1.455040e+002 -7.364295e+000  9.247723e+001
5.3689375000e+009  7.403252e-001 -1.341630e+001 -3.372762e+001 -6.093777e+001  2.519262e+001  1.455930e+002 -7.302133e+000  9.276157e+001
5.3690625000e+009  6.467669e-001 -1.376385e+001 -3.440170e+001 -6.403636e+001  2.516962e+001  1.463240e+002 -7.342986e+000  9.310038e+001
5.3691875000e+009  7.574775e-001 -1.333993e+001 -3.389384e+001 -6.059374e+001  2.510445e+001  1.455795e+002 -7.325719e+000  9.331489e+001
5.3693125000e+009  7.698050e-001 -1.383395e+001 -3.385388e+001 -6.290279e+001  2.512758e+001  1.446886e+002 -7.348257e+000  9.334504e+001
5.3694375000e+009  6.552951e-001 -1.417813e+001 -3.464415e+001 -6.323468e+001  2.508393e+001  1.456450e+002 -7.402585e+000  9.399438e+001
5.3695625000e+009  7.612929e-001 -1.415860e+001 -3.339200e+001 -6.788348e+001  2.506632e+001  1.449771e+002 -7.352058e+000  9.300253e+001
5.3696875000e+009  6.888068e-001 -1.443609e+001 -3.357383e+001 -6.414030e+001  2.510490e+001  1.450895e+002 -7.298720e+000  9.352585e+001
5.3698125000e+009  7.838889e-001 -1.366374e+001 -3.399862e+001 -6.341312e+001  2.512164e+001  1.451047e+002 -7.356564e+000  9.406510e+001
5.3699375000e+009  7.908782e-001 -1.398575e+001 -3.392755e+001 -6.323458e+001  2.507194e+001  1.448505e+002 -7.364240e+000  9.451138e+001
5.3700625000e+009  8.448766e-001 -1.377219e+001 -3.393516e+001 -6.127513e+001  2.502780e+001  1.442973e+002 -7.321464e+000  9.442352e+001
5.3701875000e+009  8.772846e-001 -1.463998e+001 -3.378657e+001 -6.723151e+001  2.502056e+001  1.448615e+002 -7.362803e+000  9.432310e+001
5.3703125000e+009  7.898384e-001 -1.375095e+001 -3.396730e+001 -6.250117e+001  2.511339e+001  1.440512e+002 -7.315464e+000  9.478837e+001
5.3704375000e+009  8.185512e-001 -1.382172e+001 -3.387232e+001 -6.560754e+001  2.496885e+001  1.441334e+002 -7.391457e+000  9.479671e+001
5.3705625000e+009  9.125823e-001 -1.446184e+001 -3.345565e+001 -6.126762e+001  2.503123e+001  1.441286e+002 -7.263553e+000  9.521285e+001
5.3706875000e+009  8.603964e-001 -1.450196e+001 -3.434683e+001 -6.519806e+001  2.501495e+001  1.430065e+002 -7.386132e+000  9.522769e+001
5.3708125000e+009  8.091351e-001 -1.335844e+001 -3.408467e+001 -6.119747e+001  2.506480e+001  1.433601e+002 -7.352985e+000  9.546947e+001
5.3709375000e+009  7.763978e-001 -1.531679e+001 -3.446259e+001 -6.979131e+001  2.503473e+001  1.432530e+002 -7.441296e+000  9.529180e+001
5.3710625000e+009  9.273598e-001 -1.378390e+001 -3.407681e+001 -6.410588e+001  2.503325e+001  1.426909e+002 -7.404348e+000  9.573579e+001
5.3711875000e+009  9.366875e-001 -1.492955e+001 -3.415484e+001 -6.602819e+001  2.500616e+001  1.433110e+002 -7.388396e+000  9.568315e+001
5.3713125000e+009  9.866292e-001 -1.445968e+001 -3.360991e+001 -6.939092e+001  2.495846e+001  1.429717e+002 -7.409286e+000  9.539069e+001
5.3714375000e+009  9.870178e-001 -1.491799e+001 -3.382522e+001 -6.592349e+001  2.503384e+001  1.425709e+002 -7.365489e+000  9.587340e+001
5.3715625000e+009  1.008230e+000 -1.499083e+001 -3.378194e+001 -7.004299e+001  2.499015e+001  1.422103e+002 -7.380445e+000  9.575288e+001
5.3716875000e+009  9.375365e-001 -1.508974e+001 -3.390651e+001 -6.734470e+001  2.497830e+001  1.420131e+002 -7.357219e+000  9.626228e+001
5.3718125000e+009  9.610307e-001 -1.503814e+001 -3.401843e+001 -6.486730e+001  2.494151e+001  1.425237e+002 -7.358582e+000  9.660585e+001
5.3719375000e+009  9.516664e-001 -1.481887e+001 -3.438084e+001 -6.369088e+001  2.498497e+001  1.417224e+002 -7.349587e+000  9.716451e+001
5.3720625000e+009  9.603072e-001 -1.563702e+001 -3.405334e+001 -6.992506e+001  2.489161e+001  1.419087e+002 -7.436751e+000  9.680295e+001
5.3721875000e+009  1.031343e+000 -1.517687e+001 -3.400525e+001 -6.942008e+001  2.483292e+001  1.423801e+002 -7.460050e+000  9.676723e+001
5.3723125000e+009  9.829961e-001 -1.473544e+001 -3.374764e+001 -6.723779e+001  2.498209e+001  1.409900e+002 -7.338711e+000  9.708891e+001
5.3724375000e+009  1.038356e+000 -1.584599e+001 -3.302655e+001 -6.670287e+001  2.489925e+001  1.415565e+002 -7.312669e+000  9.673337e+001
5.3725625000e+009  1.026435e+000 -1.517364e+001 -3.341084e+001 -6.584549e+001  2.481673e+001  1.413038e+002 -7.372989e+000  9.722108e+001
5.3726875000e+009  1.012111e+000 -1.532276e+001 -3.385109e+001 -6.829755e+001  2.488813e+001  1.411769e+002 -7.377387e+000  9.760847e+001
5.3728125000e+009  9.901299e-001 -1.619754e+001 -3.380637e+001 -6.855837e+001  2.482031e+001  1.409264e+002 -7.402032e+000  9.789268e+001
5.3729375000e+009  1.050333e+000 -1.534190e+001 -3.380787e+001 -6.916904e+001  2.480335e+001  1.409625e+002 -7.388490e+000  9.806777e+001
5.3730625000e+009  1.137708e+000 -1.425262e+001 -3.360661e+001 -6.664001e+001  2.487643e+001  1.408456e+002 -7.333081e+000  9.818964e+001
5.3731875000e+009  1.019624e+000 -1.519194e+001 -3.415184e+001 -7.247224e+001  2.475661e+001  1.405526e+002 -7.515341e+000  9.821346e+001
5.3733125000e+009  1.180160e+000 -1.618107e+001 -3.337551e+001 -7.035762e+001  2.475534e+001  1.398168e+002 -7.431824e+000  9.825150e+001
5.3734375000e+009  1.156414e+000 -1.652403e+001 -3.345238e+001 -7.376947e+001  2.486859e+001  1.399430e+002 -7.401434e+000  9.828130e+001
5.3735625000e+009  1.213361e+000 -1.565777e+001 -3.378256e+001 -7.051682e+001  2.477143e+001  1.400983e+002 -7.439102e+000  9.869691e+001
5.3736875000e+009  1.165663e+000 -1.608555e+001 -3.381627e+001 -7.299640e+001  2.471788e+001  1.398611e+002 -7.456807e+000  9.871723e+001
5.3738125000e+009  1.173063e+000 -1.541136e+001 -3.343549e+001 -7.330199e+001  2.479060e+001  1.398372e+002 -7.410740e+000  9.874615e+001
5.3739375000e+009  1.116052e+000 -1.599626e+001 -3.386776e+001 -7.314216e+001  2.476387e+001  1.393570e+002 -7.457270e+000  9.909465e+001
5.3740625000e+009  1.063472e+000 -1.579523e+001 -3.498178e+001 -7.206794e+001  2.475252e+001  1.394984e+002 -7.488106e+000  1.000655e+002
5.3741875000e+009  1.102477e+000 -1.465541e+001 -3.413927e+001 -6.632183e+001  2.479257e+001  1.391107e+002 -7.338875e+000  1.003090e+002
5.3743125000e+009  1.219654e+000 -1.606725e+001 -3.382841e+001 -7.183385e+001  2.472178e+001  1.391968e+002 -7.381086e+000  9.956612e+001
5.3744375000e+009  1.147021e+000 -1.611562e+001 -3.402811e+001 -7.338664e+001  2.465432e+001  1.389003e+002 -7.503589e+000  1.000163e+002
5.3745625000e+009  1.222244e+000 -1.514117e+001 -3.377113e+001 -6.664105e+001  2.475183e+001  1.387653e+002 -7.301679e+000  1.003695e+002
5.3746875000e+009  1.344159e+000 -1.674556e+001 -3.350938e+001 -7.434342e+001  2.471403e+001  1.380630e+002 -7.404298e+000  1.001561e+002
5.3748125000e+009  1.201577e+000 -1.683759e+001 -3.388021e+001 -7.219316e+001  2.467449e+001  1.383528e+002 -7.387561e+000  1.003274e+002
5.3749375000e+009  1.349846e+000 -1.658469e+001 -3.372337e+001 -7.022710e+001  2.470969e+001  1.379031e+002 -7.359213e+000  1.008625e+002
5.3750625000e+009  1.200297e+000 -1.590821e+001 -3.399142e+001 -6.977792e+001  2.464630e+001  1.383289e+002 -7.417394e+000  1.011404e+002
5.3751875000e+009  1.114252e+000 -1.610357e+001 -3.503202e+001 -6.753860e+001  2.465125e+001  1.381704e+002 -7.352539e+000  1.019500e+002
5.3753125000e+009  1.397350e+000 -1.648705e+001 -3.363796e+001 -6.758375e+001  2.463739e+001  1.377259e+002 -7.298630e+000  1.012167e+002
5.3754375000e+009  1.200011e+000 -1.645855e+001 -3.331993e+001 -7.170058e+001  2.460266e+001  1.376235e+002 -7.395911e+000  1.012864e+002
5.3755625000e+009  1.141454e+000 -1.582725e+001 -3.396798e+001 -7.286244e+001  2.458265e+001  1.376677e+002 -7.453568e+000  1.017182e+002
5.3756875000e+009  1.104889e+000 -1.670883e+001 -3.376587e+001 -7.535371e+001  2.454901e+001  1.374148e+002 -7.587162e+000  1.020935e+002
5.3758125000e+009  1.242077e+000 -1.689288e+001 -3.427444e+001 -7.583810e+001  2.454806e+001  1.370485e+002 -7.555300e+000  1.021793e+002
5.3759375000e+009  1.335270e+000 -1.719177e+001 -3.340363e+001 -7.144169e+001  2.455305e+001  1.368125e+002 -7.501019e+000  1.017001e+002
5.3760625000e+009  1.237161e+000 -1.658869e+001 -3.427330e+001 -7.253023e+001  2.454139e+001  1.369072e+002 -7.536073e+000  1.030553e+002
5.3761875000e+009  1.347543e+000 -1.789184e+001 -3.393744e+001 -7.732689e+001  2.449077e+001  1.363777e+002 -7.635922e+000  1.026778e+002
5.3763125000e+009  1.278419e+000 -1.758176e+001 -3.344225e+001 -7.170993e+001  2.446554e+001  1.365275e+002 -7.521758e+000  1.027502e+002
5.3764375000e+009  1.218150e+000 -1.804524e+001 -3.412334e+001 -7.539609e+001  2.445480e+001  1.363017e+002 -7.638337e+000  1.030305e+002
5.3765625000e+009  1.212716e+000 -1.789902e+001 -3.422133e+001 -8.034528e+001  2.443375e+001  1.360782e+002 -7.750813e+000  1.037325e+002
5.3766875000e+009  1.223291e+000 -1.816715e+001 -3.369039e+001 -7.474214e+001  2.440379e+001  1.359587e+002 -7.657779e+000  1.036959e+002
5.3768125000e+009  1.331276e+000 -1.886649e+001 -3.337219e+001 -7.975491e+001  2.437766e+001  1.357187e+002 -7.776636e+000  1.036175e+002
5.3769375000e+009  1.392537e+000 -1.884814e+001 -3.410063e+001 -8.295570e+001  2.439963e+001  1.355183e+002 -7.837304e+000  1.039471e+002
5.3770625000e+009  1.292725e+000 -1.912891e+001 -3.280618e+001 -7.986601e+001  2.433196e+001  1.354342e+002 -7.781793e+000  1.032287e+002
5.3771875000e+009  1.264882e+000 -1.874572e+001 -3.414775e+001 -7.428314e+001  2.435211e+001  1.350766e+002 -7.790224e+000  1.048583e+002
5.3773125000e+009  1.456867e+000 -1.893665e+001 -3.347770e+001 -7.670206e+001  2.434674e+001  1.349637e+002 -7.767963e+000  1.044799e+002
5.3774375000e+009  1.385208e+000 -1.958363e+001 -3.279290e+001 -7.748486e+001  2.431228e+001  1.345638e+002 -7.812531e+000  1.041949e+002
5.3775625000e+009  1.268590e+000 -1.970574e+001 -3.401180e+001 -7.819630e+001  2.424913e+001  1.345479e+002 -7.911811e+000  1.054459e+002
5.3776875000e+009  1.354232e+000 -1.972386e+001 -3.372046e+001 -8.003067e+001  2.423422e+001  1.347212e+002 -7.895628e+000  1.055630e+002
5.3778125000e+009  1.332644e+000 -2.051264e+001 -3.440435e+001 -7.865163e+001  2.423728e+001  1.342608e+002 -7.922947e+000  1.057720e+002
5.3779375000e+009  1.180184e+000 -1.993282e+001 -3.326424e+001 -7.426113e+001  2.416519e+001  1.344649e+002 -7.831308e+000  1.057231e+002
5.3780625000e+009  1.408660e+000 -2.061105e+001 -3.325204e+001 -8.053224e+001  2.415136e+001  1.341877e+002 -7.957803e+000  1.058407e+002
5.3781875000e+009  1.351619e+000 -2.036767e+001 -3.310796e+001 -8.115421e+001  2.418700e+001  1.339986e+002 -7.993143e+000  1.055488e+002
5.3783125000e+009  1.346777e+000 -2.081382e+001 -3.346183e+001 -7.706829e+001  2.413809e+001  1.340029e+002 -7.901675e+000  1.063755e+002
5.3784375000e+009  1.352901e+000 -2.075364e+001 -3.370555e+001 -7.609508e+001  2.413600e+001  1.336397e+002 -7.956315e+000  1.067116e+002
5.3785625000e+009  1.385808e+000 -2.094889e+001 -3.386249e+001 -7.917702e+001  2.415320e+001  1.333532e+002 -8.055506e+000  1.065075e+002
5.3786875000e+009  1.256365e+000 -2.117142e+001 -3.375726e+001 -7.603756e+001  2.414177e+001  1.335666e+002 -7.971454e+000  1.067492e+002
5.3788125000e+009  1.388069e+000 -2.144623e+001 -3.341424e+001 -7.949000e+001  2.407459e+001  1.328759e+002 -8.116653e+000  1.069510e+002
5.3789375000e+009  1.449589e+000 -2.169377e+001 -3.298803e+001 -8.150439e+001  2.404310e+001  1.328176e+002 -8.146779e+000  1.070002e+002
5.3790625000e+009  1.512545e+000 -2.212971e+001 -3.281464e+001 -7.608769e+001  2.401624e+001  1.326084e+002 -8.048749e+000  1.070556e+002
5.3791875000e+009  1.469705e+000 -2.162464e+001 -3.411855e+001 -7.614367e+001  2.401192e+001  1.326024e+002 -8.074088e+000  1.083297e+002
5.3793125000e+009  1.412023e+000 -2.255281e+001 -3.346700e+001 -8.187879e+001  2.406410e+001  1.326534e+002 -8.184377e+000  1.074329e+002
5.3794375000e+009  1.480059e+000 -2.258487e+001 -3.309114e+001 -7.966853e+001  2.387835e+001  1.321999e+002 -8.201033e+000  1.085629e+002
5.3795625000e+009  1.400483e+000 -2.220633e+001 -3.351778e+001 -7.949788e+001  2.402134e+001  1.325397e+002 -8.147567e+000  1.078457e+002
5.3796875000e+009  1.412694e+000 -2.307318e+001 -3.270551e+001 -8.545757e+001  2.389573e+001  1.319146e+002 -8.374844e+000  1.079921e+002
5.3798125000e+009  1.171812e+000 -2.298211e+001 -3.375981e+001 -8.351694e+001  2.382932e+001  1.320257e+002 -8.342377e+000  1.095357e+002
5.3799375000e+009  1.576614e+000 -2.294433e+001 -3.334554e+001 -7.817970e+001  2.390051e+001  1.318902e+002 -8.182257e+000  1.087196e+002
5.3800625000e+009  1.371273e+000 -2.368119e+001 -3.344650e+001 -8.721684e+001  2.389773e+001  1.321607e+002 -8.350110e+000  1.085506e+002
5.3801875000e+009  1.283541e+000 -2.333201e+001 -3.355682e+001 -8.523169e+001  2.378331e+001  1.312507e+002 -8.474717e+000  1.099752e+002
5.3803125000e+009  1.529958e+000 -2.357152e+001 -3.377795e+001 -8.415090e+001  2.388991e+001  1.316188e+002 -8.314164e+000  1.093812e+002
5.3804375000e+009  1.565712e+000 -2.355597e+001 -3.309685e+001 -8.211655e+001  2.383549e+001  1.312199e+002 -8.372011e+000  1.092528e+002
5.3805625000e+009  1.433333e+000 -2.378828e+001 -3.338862e+001 -8.499194e+001  2.380250e+001  1.313391e+002 -8.411938e+000  1.095255e+002
5.3806875000e+009  1.487350e+000 -2.409557e+001 -3.290129e+001 -8.354860e+001  2.372240e+001  1.305027e+002 -8.489058e+000  1.100582e+002
5.3808125000e+009  1.502136e+000 -2.382821e+001 -3.332546e+001 -8.899097e+001  2.371916e+001  1.306361e+002 -8.612761e+000  1.105357e+002
5.3809375000e+009  1.455714e+000 -2.445040e+001 -3.411333e+001 -8.559311e+001  2.370924e+001  1.301038e+002 -8.613527e+000  1.109691e+002
5.3810625000e+009  1.512761e+000 -2.416520e+001 -3.316923e+001 -8.263809e+001  2.362426e+001  1.299866e+002 -8.537222e+000  1.111410e+002
5.3811875000e+009  1.487427e+000 -2.491221e+001 -3.416489e+001 -8.622376e+001  2.368253e+001  1.300626e+002 -8.616126e+000  1.114891e+002
5.3813125000e+009  1.571870e+000 -2.524786e+001 -3.306005e+001 -8.685202e+001  2.361164e+001  1.298501e+002 -8.652143e+000  1.109072e+002
5.3814375000e+009  1.562782e+000 -2.521341e+001 -3.350515e+001 -7.928933e+001  2.368402e+001  1.301331e+002 -8.476079e+000  1.109093e+002
5.3815625000e+009  1.558157e+000 -2.535538e+001 -3.321391e+001 -8.622945e+001  2.362955e+001  1.297995e+002 -8.669288e+000  1.110550e+002
5.3816875000e+009  1.437307e+000 -2.590495e+001 -3.301771e+001 -9.082002e+001  2.356445e+001  1.306001e+002 -8.636974e+000  1.114191e+002
5.3818125000e+009  1.533130e+000 -2.522840e+001 -3.328578e+001 -8.393983e+001  2.359859e+001  1.293097e+002 -8.720510e+000  1.116761e+002
5.3819375000e+009  1.579894e+000 -2.567732e+001 -3.330293e+001 -8.462194e+001  2.352385e+001  1.296832e+002 -8.635523e+000  1.118808e+002
5.3820625000e+009  1.510541e+000 -2.600024e+001 -3.316930e+001 -8.518217e+001  2.349190e+001  1.295285e+002 -8.696106e+000  1.120405e+002
5.3821875000e+009  1.598816e+000 -2.603036e+001 -3.359326e+001 -8.568035e+001  2.349170e+001  1.290361e+002 -8.740948e+000  1.125040e+002
5.3823125000e+009  1.615352e+000 -2.561895e+001 -3.361185e+001 -8.727627e+001  2.345780e+001  1.291144e+002 -8.738118e+000  1.131295e+002
5.3824375000e+009  1.503471e+000 -2.648473e+001 -3.317945e+001 -9.188570e+001  2.344972e+001  1.292540e+002 -8.883289e+000  1.130539e+002
5.3825625000e+009  1.540539e+000 -2.637708e+001 -3.281507e+001 -8.860986e+001  2.341988e+001  1.287632e+002 -8.902388e+000  1.126007e+002
5.3826875000e+009  1.585914e+000 -2.688466e+001 -3.248830e+001 -8.999119e+001  2.340163e+001  1.286409e+002 -8.947671e+000  1.126068e+002
5.3828125000e+009  1.593535e+000 -2.746777e+001 -3.280544e+001 -8.806248e+001  2.336810e+001  1.282356e+002 -8.964283e+000  1.131054e+002
5.3829375000e+009  1.629475e+000 -2.664589e+001 -3.283776e+001 -8.800796e+001  2.337063e+001  1.284151e+002 -8.949324e+000  1.131870e+002
5.3830625000e+009  1.608170e+000 -2.707215e+001 -3.319626e+001 -8.774197e+001  2.328905e+001  1.283444e+002 -8.869427e+000  1.138504e+002
5.3831875000e+009  1.619895e+000 -2.711574e+001 -3.321184e+001 -8.966302e+001  2.327950e+001  1.279933e+002 -8.983751e+000  1.141960e+002
5.3833125000e+009  1.593992e+000 -2.725579e+001 -3.227390e+001 -8.962279e+001  2.328927e+001  1.274988e+002 -9.131572e+000  1.135732e+002
5.3834375000e+009  1.641371e+000 -2.725577e+001 -3.290208e+001 -8.996999e+001  2.318821e+001  1.283544e+002 -8.929350e+000  1.144075e+002
5.3835625000e+009  1.602910e+000 -2.766641e+001 -3.266429e+001 -9.011516e+001  2.315499e+001  1.277118e+002 -9.043108e+000  1.147370e+002
5.3836875000e+009  1.600206e+000 -2.768280e+001 -3.306390e+001 -8.994957e+001  2.316376e+001  1.275263e+002 -9.071550e+000  1.150628e+002
5.3838125000e+009  1.651291e+000 -2.795230e+001 -3.318167e+001 -9.201225e+001  2.318465e+001  1.280653e+002 -9.038317e+000  1.150260e+002
5.3839375000e+009  1.685735e+000 -2.845320e+001 -3.275067e+001 -8.648546e+001  2.314898e+001  1.268527e+002 -9.129457e+000  1.145568e+002
5.3840625000e+009  1.666495e+000 -2.798040e+001 -3.309279e+001 -8.905378e+001  2.305744e+001  1.262058e+002 -9.182530e+000  1.160539e+002
5.3841875000e+009  1.674226e+000 -2.815874e+001 -3.332658e+001 -9.075745e+001  2.308190e+001  1.271284e+002 -9.122213e+000  1.158289e+002
5.3843125000e+009  1.701050e+000 -2.885028e+001 -3.229261e+001 -9.293018e+001  2.306023e+001  1.266039e+002 -9.349894e+000  1.154146e+002
5.3844375000e+009  1.635141e+000 -2.830272e+001 -3.311275e+001 -9.381799e+001  2.311648e+001  1.268356e+002 -9.255018e+000  1.158864e+002
5.3845625000e+009  1.727059e+000 -2.824232e+001 -3.342157e+001 -9.008141e+001  2.304072e+001  1.269590e+002 -9.118502e+000  1.164153e+002
5.3846875000e+009  1.756752e+000 -2.895690e+001 -3.328537e+001 -9.109685e+001  2.303178e+001  1.268915e+002 -9.145029e+000  1.162446e+002
5.3848125000e+009  1.718100e+000 -2.925182e+001 -3.228631e+001 -9.453589e+001  2.303155e+001  1.264239e+002 -9.429883e+000  1.154948e+002
5.3849375000e+009  1.764669e+000 -2.886565e+001 -3.262992e+001 -9.091582e+001  2.288836e+001  1.263292e+002 -9.267417e+000  1.167275e+002
5.3850625000e+009  1.795403e+000 -2.941458e+001 -3.270687e+001 -9.348404e+001  2.298649e+001  1.264986e+002 -9.342418e+000  1.163149e+002
5.3851875000e+009  1.795567e+000 -2.952163e+001 -3.227504e+001 -9.062045e+001  2.291446e+001  1.256999e+002 -9.420947e+000  1.161974e+002
5.3853125000e+009  1.735568e+000 -2.932668e+001 -3.277171e+001 -9.182850e+001  2.285818e+001  1.262929e+002 -9.273736e+000  1.172955e+002
5.3854375000e+009  1.740736e+000 -2.917972e+001 -3.317014e+001 -9.519412e+001  2.292452e+001  1.255875e+002 -9.462841e+000  1.175070e+002
5.3855625000e+009  1.872193e+000 -2.976387e+001 -3.283361e+001 -9.374358e+001  2.282584e+001  1.257972e+002 -9.401766e+000  1.178056e+002
5.3856875000e+009  1.803152e+000 -2.964845e+001 -3.254074e+001 -9.889757e+001  2.282674e+001  1.253603e+002 -9.594092e+000  1.182912e+002
5.3858125000e+009  1.866572e+000 -2.936782e+001 -3.353632e+001 -8.806252e+001  2.280696e+001  1.251178e+002 -9.329032e+000  1.182133e+002
5.3859375000e+009  1.882408e+000 -2.995573e+001 -3.278774e+001 -9.183422e+001  2.283134e+001  1.243906e+002 -9.573178e+000  1.179533e+002
5.3860625000e+009  1.807023e+000 -3.006767e+001 -3.233820e+001 -9.513259e+001  2.272240e+001  1.254238e+002 -9.526045e+000  1.180816e+002
5.3861875000e+009  1.911441e+000 -2.977413e+001 -3.267083e+001 -9.631314e+001  2.267238e+001  1.253049e+002 -9.498540e+000  1.190590e+002
5.3863125000e+009  1.959787e+000 -2.918475e+001 -3.372459e+001 -9.255126e+001  2.276280e+001  1.245436e+002 -9.442207e+000  1.191049e+002
5.3864375000e+009  1.865704e+000 -3.009940e+001 -3.250125e+001 -9.905073e+001  2.264005e+001  1.242693e+002 -9.712391e+000  1.196965e+002
5.3865625000e+009  1.808655e+000 -3.025081e+001 -3.297012e+001 -9.655807e+001  2.265604e+001  1.244534e+002 -9.664066e+000  1.196757e+002
5.3866875000e+009  1.936069e+000 -3.037475e+001 -3.319865e+001 -9.516272e+001  2.268513e+001  1.244887e+002 -9.582309e+000  1.189204e+002
5.3868125000e+009  1.931578e+000 -3.086303e+001 -3.204941e+001 -9.310765e+001  2.262798e+001  1.243757e+002 -9.676961e+000  1.181409e+002
5.3869375000e+009  1.914461e+000 -3.070462e+001 -3.332772e+001 -9.416174e+001  2.261190e+001  1.233512e+002 -9.746222e+000  1.202121e+002
5.3870625000e+009  1.881617e+000 -3.090196e+001 -3.224454e+001 -9.290524e+001  2.252925e+001  1.240457e+002 -9.710867e+000  1.194576e+002
5.3871875000e+009  1.899810e+000 -3.081408e+001 -3.282710e+001 -9.661701e+001  2.258465e+001  1.242142e+002 -9.726920e+000  1.196660e+002
5.3873125000e+009  2.061551e+000 -3.018801e+001 -3.287307e+001 -9.502934e+001  2.257858e+001  1.240312e+002 -9.692018e+000  1.198038e+002
5.3874375000e+009  2.053540e+000 -3.068488e+001 -3.253151e+001 -9.887500e+001  2.262598e+001  1.235749e+002 -9.879737e+000  1.194828e+002
5.3875625000e+009  1.904795e+000 -3.160785e+001 -3.225025e+001 -9.769360e+001  2.254838e+001  1.239174e+002 -9.861982e+000  1.194367e+002
5.3876875000e+009  2.064745e+000 -3.022124e+001 -3.248704e+001 -9.344087e+001  2.252971e+001  1.233926e+002 -9.812950e+000  1.199145e+002
5.3878125000e+009  1.972631e+000 -3.107998e+001 -3.290234e+001 -9.782750e+001  2.244297e+001  1.235278e+002 -9.753489e+000  1.211633e+002
5.3879375000e+009  2.076220e+000 -3.214999e+001 -3.237511e+001 -9.589354e+001  2.235200e+001  1.229466e+002 -9.920673e+000  1.210517e+002
5.3880625000e+009  2.000771e+000 -3.092871e+001 -3.234114e+001 -9.628801e+001  2.239878e+001  1.230139e+002 -9.953362e+000  1.214164e+002
5.3881875000e+009  2.034312e+000 -3.165724e+001 -3.225260e+001 -9.719660e+001  2.238795e+001  1.230534e+002 -1.001412e+001  1.208348e+002
5.3883125000e+009  2.001199e+000 -3.257872e+001 -3.250985e+001 -1.029109e+002  2.229729e+001  1.227146e+002 -1.013802e+001  1.229313e+002
5.3884375000e+009  1.931095e+000 -3.265639e+001 -3.298563e+001 -9.818288e+001  2.231732e+001  1.235518e+002 -9.957852e+000  1.217232e+002
5.3885625000e+009  1.991401e+000 -3.413176e+001 -3.321936e+001 -1.002424e+002  2.218401e+001  1.225255e+002 -1.007844e+001  1.236322e+002
5.3886875000e+009  1.967736e+000 -3.386052e+001 -3.199943e+001 -1.003235e+002  2.224866e+001  1.227121e+002 -1.032862e+001  1.225030e+002
5.3888125000e+009  1.884051e+000 -3.370256e+001 -3.280239e+001 -1.008923e+002  2.219814e+001  1.227066e+002 -1.024365e+001  1.237680e+002
5.3889375000e+009  1.929079e+000 -3.484471e+001 -3.258448e+001 -1.034773e+002  2.214500e+001  1.223818e+002 -1.036406e+001  1.239815e+002
5.3890625000e+009  2.020250e+000 -3.437932e+001 -3.327835e+001 -9.918600e+001  2.221228e+001  1.229352e+002 -1.018579e+001  1.226299e+002
5.3891875000e+009  1.879691e+000 -3.529807e+001 -3.270517e+001 -9.728934e+001  2.209064e+001  1.224415e+002 -1.029917e+001  1.235435e+002
5.3893125000e+009  2.138448e+000 -3.537080e+001 -3.216643e+001 -9.870115e+001  2.206778e+001  1.226557e+002 -1.030431e+001  1.233531e+002
5.3894375000e+009  2.024536e+000 -3.617257e+001 -3.252210e+001 -1.016833e+002  2.195793e+001  1.225531e+002 -1.033506e+001  1.248387e+002
5.3895625000e+009  1.939473e+000 -3.707832e+001 -3.188138e+001 -9.901709e+001  2.193791e+001  1.228020e+002 -1.045329e+001  1.236449e+002
5.3896875000e+009  2.068805e+000 -3.589319e+001 -3.247050e+001 -1.019198e+002  2.197532e+001  1.228713e+002 -1.038914e+001  1.243074e+002
5.3898125000e+009  2.005950e+000 -3.748466e+001 -3.258193e+001 -1.075469e+002  2.190103e+001  1.224094e+002 -1.060561e+001  1.263417e+002
5.3899375000e+009  1.899061e+000 -3.640751e+001 -3.288534e+001 -1.014380e+002  2.194398e+001  1.226129e+002 -1.046563e+001  1.249579e+002
5.3900625000e+009  1.978814e+000 -3.824784e+001 -3.245422e+001 -1.012029e+002  2.182015e+001  1.224187e+002 -1.057816e+001  1.256428e+002
5.3901875000e+009  1.901174e+000 -3.942603e+001 -3.299482e+001 -1.078794e+002  2.172734e+001  1.231037e+002 -1.043075e+001  1.268430e+002
5.3903125000e+009  1.899673e+000 -3.944131e+001 -3.205732e+001 -1.012829e+002  2.173771e+001  1.226812e+002 -1.068372e+001  1.254756e+002
5.3904375000e+009  2.035624e+000 -3.947890e+001 -3.229963e+001 -1.042184e+002  2.178189e+001  1.223383e+002 -1.074685e+001  1.258817e+002
5.3905625000e+009  1.884072e+000 -3.921415e+001 -3.220849e+001 -1.030275e+002  2.182130e+001  1.225418e+002 -1.077312e+001  1.251126e+002
5.3906875000e+009  1.959789e+000 -3.962320e+001 -3.216684e+001 -1.051946e+002  2.172892e+001  1.225022e+002 -1.078389e+001  1.262202e+002
5.3908125000e+009  2.072411e+000 -3.937346e+001 -3.272271e+001 -9.726618e+001  2.178865e+001  1.219725e+002 -1.084514e+001  1.252717e+002
5.3909375000e+009  2.115855e+000 -4.066441e+001 -3.214501e+001 -1.087730e+002  2.157150e+001  1.223964e+002 -1.071997e+001  1.283223e+002
5.3910625000e+009  2.078969e+000 -3.994347e+001 -3.184341e+001 -1.065102e+002  2.168760e+001  1.223887e+002 -1.096678e+001  1.269092e+002
5.3911875000e+009  1.967927e+000 -4.154126e+001 -3.244824e+001 -1.035019e+002  2.166304e+001  1.225502e+002 -1.091243e+001  1.257093e+002
5.3913125000e+009  2.083734e+000 -4.262169e+001 -3.295212e+001 -1.081993e+002  2.147730e+001  1.222340e+002 -1.075653e+001  1.290313e+002
5.3914375000e+009  2.017387e+000 -4.170713e+001 -3.256906e+001 -1.096521e+002  2.164288e+001  1.224456e+002 -1.100232e+001  1.265828e+002
5.3915625000e+009  2.085784e+000 -4.410590e+001 -3.157382e+001 -1.099249e+002  2.152967e+001  1.223734e+002 -1.121541e+001  1.270340e+002
5.3916875000e+009  2.136475e+000 -4.451232e+001 -3.193109e+001 -1.081485e+002  2.137589e+001  1.220305e+002 -1.116535e+001  1.292641e+002
5.3918125000e+009  1.928410e+000 -4.197684e+001 -3.239044e+001 -1.084218e+002  2.154377e+001  1.224393e+002 -1.108686e+001  1.280235e+002
5.3919375000e+009  2.073133e+000 -4.336130e+001 -3.182004e+001 -1.107203e+002  2.147782e+001  1.220752e+002 -1.131236e+001  1.287341e+002
5.3920625000e+009  2.103945e+000 -4.349396e+001 -3.250095e+001 -1.066280e+002  2.142245e+001  1.219270e+002 -1.115041e+001  1.284887e+002
5.3921875000e+009  2.074306e+000 -4.349303e+001 -3.310707e+001 -1.114976e+002  2.140871e+001  1.219765e+002 -1.108921e+001  1.300810e+002
5.3923125000e+009  2.259218e+000 -4.478417e+001 -3.195510e+001 -1.054167e+002  2.135402e+001  1.218777e+002 -1.126697e+001  1.282446e+002
5.3924375000e+009  2.281796e+000 -4.634032e+001 -3.168236e+001 -1.108747e+002  2.125938e+001  1.217185e+002 -1.139273e+001  1.293755e+002
5.3925625000e+009  2.167037e+000 -4.479642e+001 -3.197556e+001 -1.094902e+002  2.132643e+001  1.220601e+002 -1.128844e+001  1.294276e+002
5.3926875000e+009  2.245418e+000 -4.557843e+001 -3.201198e+001 -1.150161e+002  2.126650e+001  1.217996e+002 -1.138280e+001  1.312460e+002
5.3928125000e+009  2.410764e+000 -4.517081e+001 -3.179899e+001 -1.089108e+002  2.123812e+001  1.214779e+002 -1.149367e+001  1.300287e+002
5.3929375000e+009  2.311753e+000 -4.498878e+001 -3.227281e+001 -1.077601e+002  2.123143e+001  1.216166e+002 -1.139560e+001  1.293356e+002
5.3930625000e+009  2.033174e+000 -4.468868e+001 -3.272443e+001 -1.068846e+002  2.132304e+001  1.220163e+002 -1.134059e+001  1.279895e+002
5.3931875000e+009  2.335029e+000 -4.590442e+001 -3.227414e+001 -1.099984e+002  2.120673e+001  1.216510e+002 -1.140882e+001  1.297311e+002
5.3933125000e+009  2.358471e+000 -4.581446e+001 -3.255195e+001 -1.096146e+002  2.114923e+001  1.214623e+002 -1.146253e+001  1.303761e+002
5.3934375000e+009  2.314255e+000 -4.721252e+001 -3.208677e+001 -1.153046e+002  2.113288e+001  1.219055e+002 -1.160312e+001  1.300778e+002
5.3935625000e+009  2.584564e+000 -4.827113e+001 -3.235475e+001 -1.131637e+002  2.101614e+001  1.212731e+002 -1.156428e+001  1.313526e+002
5.3936875000e+009  2.618670e+000 -4.907206e+001 -3.199335e+001 -1.142581e+002  2.095474e+001  1.214678e+002 -1.152089e+001  1.319650e+002
5.3938125000e+009  2.744137e+000 -4.793060e+001 -3.196639e+001 -1.158126e+002  2.102322e+001  1.210346e+002 -1.159814e+001  1.315747e+002
5.3939375000e+009  2.657558e+000 -4.842362e+001 -3.163133e+001 -1.108343e+002  2.095869e+001  1.210524e+002 -1.173399e+001  1.315018e+002
5.3940625000e+009  2.150588e+000 -4.932935e+001 -3.173223e+001 -1.240167e+002  2.099564e+001  1.221817e+002 -1.160275e+001  1.341234e+002
5.3941875000e+009  2.841289e+000 -4.905785e+001 -3.197316e+001 -1.093687e+002  2.091002e+001  1.210763e+002 -1.180866e+001  1.302770e+002
5.3943125000e+009  2.678729e+000 -4.987262e+001 -3.153178e+001 -1.125475e+002  2.085951e+001  1.212246e+002 -1.188523e+001  1.323038e+002
5.3944375000e+009  2.785867e+000 -5.070709e+001 -3.115705e+001 -1.130411e+002  2.084625e+001  1.211732e+002 -1.187986e+001  1.316151e+002
5.3945625000e+009  2.770001e+000 -5.164136e+001 -3.222947e+001 -1.112242e+002  2.078285e+001  1.212804e+002 -1.179558e+001  1.304679e+002
5.3946875000e+009  3.059968e+000 -4.987848e+001 -3.163437e+001 -1.158120e+002  2.081300e+001  1.205347e+002 -1.193684e+001  1.325550e+002
5.3948125000e+009  2.830637e+000 -5.057678e+001 -3.159292e+001 -1.146066e+002  2.078448e+001  1.208097e+002 -1.195204e+001  1.323227e+002
5.3949375000e+009  2.420967e+000 -4.981202e+001 -3.209320e+001 -1.135865e+002  2.089063e+001  1.216918e+002 -1.179722e+001  1.314509e+002
5.3950625000e+009  3.016446e+000 -5.160626e+001 -3.119777e+001 -1.119549e+002  2.070328e+001  1.209925e+002 -1.211224e+001  1.318334e+002
5.3951875000e+009  2.736966e+000 -5.091840e+001 -3.225309e+001 -1.100736e+002  2.078767e+001  1.211603e+002 -1.195464e+001  1.320217e+002
5.3953125000e+009  2.755335e+000 -5.198478e+001 -3.213795e+001 -1.131049e+002  2.076723e+001  1.214158e+002 -1.180805e+001  1.307968e+002
5.3954375000e+009  3.230605e+000 -5.202499e+001 -3.229400e+001 -1.096979e+002  2.064789e+001  1.207289e+002 -1.197223e+001  1.310218e+002
5.3955625000e+009  2.769038e+000 -5.311464e+001 -3.201877e+001 -1.163782e+002  2.061999e+001  1.215350e+002 -1.200360e+001  1.329037e+002
5.3956875000e+009  2.605516e+000 -5.346014e+001 -3.184311e+001 -1.184513e+002  2.068043e+001  1.220029e+002 -1.195650e+001  1.333229e+002
5.3958125000e+009  3.393142e+000 -5.426105e+001 -3.139656e+001 -1.146865e+002  2.049306e+001  1.208144e+002 -1.213818e+001  1.328603e+002
5.3959375000e+009  2.829865e+000 -5.227309e+001 -3.138783e+001 -1.110753e+002  2.069578e+001  1.213168e+002 -1.223503e+001  1.320308e+002
5.3960625000e+009  2.947264e+000 -5.249570e+001 -3.136004e+001 -1.197624e+002  2.060019e+001  1.210897e+002 -1.211713e+001  1.334634e+002
5.3961875000e+009  3.316832e+000 -5.402567e+001 -3.096723e+001 -1.198055e+002  2.049396e+001  1.208424e+002 -1.233496e+001  1.347557e+002
5.3963125000e+009  2.985200e+000 -5.217246e+001 -3.153942e+001 -1.141136e+002  2.063254e+001  1.211489e+002 -1.220639e+001  1.328595e+002
5.3964375000e+009  3.169691e+000 -5.356940e+001 -3.193183e+001 -1.177320e+002  2.049559e+001  1.206995e+002 -1.206437e+001  1.329241e+002
5.3965625000e+009  3.676696e+000 -5.360695e+001 -3.140467e+001 -1.189746e+002  2.043957e+001  1.201957e+002 -1.221495e+001  1.339983e+002
5.3966875000e+009  3.086909e+000 -5.383343e+001 -3.199503e+001 -1.187004e+002  2.052299e+001  1.209942e+002 -1.211396e+001  1.332885e+002
5.3968125000e+009  3.163895e+000 -5.583519e+001 -3.146985e+001 -1.189288e+002  2.038396e+001  1.209011e+002 -1.216159e+001  1.325090e+002
5.3969375000e+009  3.634044e+000 -5.395782e+001 -3.123874e+001 -1.158211e+002  2.036716e+001  1.201426e+002 -1.244599e+001  1.325424e+002
5.3970625000e+009  3.481104e+000 -5.518042e+001 -3.126128e+001 -1.214192e+002  2.041808e+001  1.208398e+002 -1.224622e+001  1.346052e+002
5.3971875000e+009  3.220129e+000 -5.634055e+001 -3.197235e+001 -1.249602e+002  2.036778e+001  1.211787e+002 -1.207899e+001  1.338975e+002
5.3973125000e+009  3.272913e+000 -5.575704e+001 -3.154157e+001 -1.197817e+002  2.037338e+001  1.211632e+002 -1.235110e+001  1.341243e+002
5.3974375000e+009  3.278132e+000 -5.618447e+001 -3.172750e+001 -1.207367e+002  2.038286e+001  1.211662e+002 -1.225246e+001  1.340059e+002
5.3975625000e+009  3.143290e+000 -5.815483e+001 -3.206889e+001 -1.223014e+002  2.034463e+001  1.218356e+002 -1.215687e+001  1.337910e+002
5.3976875000e+009  3.548693e+000 -5.571583e+001 -3.165615e+001 -1.212524e+002  2.031130e+001  1.210104e+002 -1.235749e+001  1.341118e+002
5.3978125000e+009  3.484614e+000 -5.662459e+001 -3.194415e+001 -1.194564e+002  2.036652e+001  1.208112e+002 -1.217241e+001  1.330426e+002
5.3979375000e+009  3.685970e+000 -5.784764e+001 -3.103660e+001 -1.211248e+002  2.015899e+001  1.207179e+002 -1.236559e+001  1.339268e+002
5.3980625000e+009  4.058508e+000 -5.645458e+001 -3.131597e+001 -1.187829e+002  2.015572e+001  1.195416e+002 -1.245699e+001  1.330117e+002
5.3981875000e+009  3.750395e+000 -5.736923e+001 -3.238408e+001 -1.281471e+002  2.019633e+001  1.208540e+002 -1.206325e+001  1.345612e+002
5.3983125000e+009  3.537982e+000 -5.875634e+001 -3.125329e+001 -1.203486e+002  2.011426e+001  1.213322e+002 -1.253696e+001  1.334590e+002
5.3984375000e+009  3.743732e+000 -5.796776e+001 -3.132316e+001 -1.225147e+002  2.015861e+001  1.203621e+002 -1.241022e+001  1.332428e+002
5.3985625000e+009  3.770154e+000 -5.879550e+001 -3.156336e+001 -1.186501e+002  2.015444e+001  1.209118e+002 -1.230082e+001  1.325074e+002
5.3986875000e+009  3.669299e+000 -5.900681e+001 -3.112056e+001 -1.259328e+002  2.013825e+001  1.211695e+002 -1.236393e+001  1.341796e+002
5.3988125000e+009  3.916631e+000 -5.839881e+001 -3.135979e+001 -1.214444e+002  2.010525e+001  1.205681e+002 -1.237499e+001  1.331718e+002
5.3989375000e+009  3.866646e+000 -6.021484e+001 -3.116803e+001 -1.210730e+002  2.001059e+001  1.208963e+002 -1.247811e+001  1.334059e+002
5.3990625000e+009  3.803479e+000 -5.842609e+001 -3.139334e+001 -1.298227e+002  2.016362e+001  1.204752e+002 -1.215007e+001  1.344917e+002
5.3991875000e+009  4.112643e+000 -6.069207e+001 -3.122478e+001 -1.181895e+002  1.996855e+001  1.216381e+002 -1.269158e+001  1.332376e+002
5.3993125000e+009  4.030766e+000 -5.870074e+001 -3.174525e+001 -1.218219e+002  2.004705e+001  1.206980e+002 -1.242595e+001  1.332932e+002
5.3994375000e+009  4.073254e+000 -6.134766e+001 -3.106942e+001 -1.241815e+002  1.996903e+001  1.206258e+002 -1.235688e+001  1.332988e+002
5.3995625000e+009  4.183460e+000 -5.941162e+001 -3.073758e+001 -1.256513e+002  2.000353e+001  1.210829e+002 -1.257348e+001  1.353423e+002
5.3996875000e+009  3.830682e+000 -6.141786e+001 -3.128583e+001 -1.282211e+002  1.998986e+001  1.215389e+002 -1.236491e+001  1.338813e+002
5.3998125000e+009  4.107493e+000 -6.077377e+001 -3.100768e+001 -1.241240e+002  1.998960e+001  1.210264e+002 -1.249440e+001  1.334597e+002
5.3999375000e+009  4.201414e+000 -6.020851e+001 -3.102554e+001 -1.241039e+002  1.990680e+001  1.206351e+002 -1.236476e+001  1.333072e+002
5.4000625000e+009  4.247083e+000 -6.077870e+001 -3.094602e+001 -1.257153e+002  1.993651e+001  1.213759e+002 -1.250304e+001  1.342348e+002
5.4001875000e+009  4.149768e+000 -6.196953e+001 -3.145370e+001 -1.262431e+002  1.999677e+001  1.205981e+002 -1.224827e+001  1.327979e+002
5.4003125000e+009  4.655307e+000 -6.054247e+001 -2.996536e+001 -1.207905e+002  1.981123e+001  1.204154e+002 -1.284560e+001  1.338589e+002
5.4004375000e+009  4.413804e+000 -6.270069e+001 -3.059618e+001 -1.278900e+002  1.988513e+001  1.220088e+002 -1.262675e+001  1.351002e+002
5.4005625000e+009  4.250378e+000 -6.256001e+001 -3.141642e+001 -1.252578e+002  1.999901e+001  1.213811e+002 -1.232474e+001  1.334051e+002
5.4006875000e+009  4.373054e+000 -6.305919e+001 -3.059081e+001 -1.283858e+002  1.995893e+001  1.214661e+002 -1.253037e+001  1.347626e+002
5.4008125000e+009  4.084651e+000 -6.338956e+001 -3.073789e+001 -1.301196e+002  1.998809e+001  1.219528e+002 -1.249094e+001  1.352915e+002
5.4009375000e+009  4.211443e+000 -6.357524e+001 -3.097234e+001 -1.285434e+002  1.996208e+001  1.218146e+002 -1.243490e+001  1.347805e+002
5.4010625000e+009  4.457119e+000 -6.339539e+001 -3.109263e+001 -1.241064e+002  1.978195e+001  1.215668e+002 -1.270959e+001  1.335443e+002
5.4011875000e+009  4.420606e+000 -6.411628e+001 -2.986341e+001 -1.255052e+002  1.987811e+001  1.219781e+002 -1.288990e+001  1.359203e+002
5.4013125000e+009  4.150403e+000 -6.478221e+001 -3.020098e+001 -1.333203e+002  2.003859e+001  1.225379e+002 -1.257691e+001  1.368006e+002
5.4014375000e+009  4.458395e+000 -6.402175e+001 -3.048306e+001 -1.318355e+002  1.987730e+001  1.225214e+002 -1.275123e+001  1.359855e+002
5.4015625000e+009  4.345473e+000 -6.613681e+001 -3.033241e+001 -1.336342e+002  1.989609e+001  1.226370e+002 -1.260722e+001  1.366853e+002
5.4016875000e+009  4.263881e+000 -6.602665e+001 -3.057341e+001 -1.333171e+002  1.987475e+001  1.228176e+002 -1.259918e+001  1.364718e+002
5.4018125000e+009  4.428819e+000 -6.555338e+001 -3.018980e+001 -1.306319e+002  1.985144e+001  1.226429e+002 -1.281256e+001  1.362463e+002
5.4019375000e+009  4.531945e+000 -6.443008e+001 -3.063196e+001 -1.351863e+002  1.990279e+001  1.218310e+002 -1.257246e+001  1.363572e+002
5.4020625000e+009  4.216011e+000 -6.787730e+001 -3.077503e+001 -1.275441e+002  2.010303e+001  1.221264e+002 -1.265930e+001  1.352082e+002
5.4021875000e+009  4.461918e+000 -6.597991e+001 -3.077438e+001 -1.334637e+002  1.987996e+001  1.223851e+002 -1.268431e+001  1.359479e+002
5.4023125000e+009  4.469655e+000 -6.646684e+001 -3.010929e+001 -1.332063e+002  1.996204e+001  1.223726e+002 -1.273967e+001  1.363869e+002
5.4024375000e+009  4.363517e+000 -6.782594e+001 -3.057821e+001 -1.344035e+002  1.987864e+001  1.228311e+002 -1.271251e+001  1.364255e+002
5.4025625000e+009  4.412385e+000 -6.862041e+001 -3.036172e+001 -1.367063e+002  1.992665e+001  1.235843e+002 -1.269404e+001  1.369306e+002
5.4026875000e+009  4.563814e+000 -6.802465e+001 -3.080904e+001 -1.303581e+002  1.986131e+001  1.230079e+002 -1.283228e+001  1.352953e+002
5.4028125000e+009  4.461978e+000 -6.955167e+001 -3.008907e+001 -1.311534e+002  1.993784e+001  1.231106e+002 -1.289237e+001  1.366427e+002
5.4029375000e+009  4.396675e+000 -6.876111e+001 -3.022788e+001 -1.320139e+002  1.994985e+001  1.229239e+002 -1.283701e+001  1.363172e+002
5.4030625000e+009  4.392199e+000 -6.909119e+001 -3.019710e+001 -1.309397e+002  1.998389e+001  1.230688e+002 -1.289865e+001  1.357217e+002
5.4031875000e+009  4.503543e+000 -6.996447e+001 -3.027418e+001 -1.412139e+002  2.010403e+001  1.236852e+002 -1.252395e+001  1.376718e+002
5.4033125000e+009  4.534436e+000 -7.025953e+001 -2.985972e+001 -1.345282e+002  1.989574e+001  1.234148e+002 -1.291678e+001  1.369925e+002
5.4034375000e+009  4.467719e+000 -7.037766e+001 -3.051922e+001 -1.388435e+002  1.986083e+001  1.238636e+002 -1.276191e+001  1.362118e+002
5.4035625000e+009  4.624442e+000 -7.125704e+001 -3.032069e+001 -1.304128e+002  1.998567e+001  1.236680e+002 -1.294591e+001  1.358950e+002
5.4036875000e+009  4.514959e+000 -7.214760e+001 -3.103296e+001 -1.397859e+002  1.994250e+001  1.244833e+002 -1.264467e+001  1.355972e+002
5.4038125000e+009  4.702209e+000 -7.173506e+001 -3.015739e+001 -1.323289e+002  1.998471e+001  1.234682e+002 -1.296050e+001  1.359133e+002
5.4039375000e+009  4.642744e+000 -7.232842e+001 -3.041491e+001 -1.396343e+002  1.995365e+001  1.240054e+002 -1.265377e+001  1.364784e+002
5.4040625000e+009  4.660232e+000 -7.162892e+001 -3.028939e+001 -1.426505e+002  1.997306e+001  1.234854e+002 -1.267956e+001  1.367762e+002
5.4041875000e+009  4.718831e+000 -7.253126e+001 -3.032679e+001 -1.332768e+002  1.988468e+001  1.241712e+002 -1.294762e+001  1.354847e+002
5.4043125000e+009  4.616096e+000 -7.504668e+001 -3.055080e+001 -1.360615e+002  2.001393e+001  1.243423e+002 -1.280054e+001  1.358700e+002
5.4044375000e+009  4.690967e+000 -7.255537e+001 -3.057930e+001 -1.360004e+002  2.008602e+001  1.235781e+002 -1.281054e+001  1.357736e+002
5.4045625000e+009  4.609415e+000 -7.328370e+001 -3.013856e+001 -1.361515e+002  2.005768e+001  1.238288e+002 -1.288879e+001  1.354927e+002
5.4046875000e+009  4.712849e+000 -7.534753e+001 -3.029021e+001 -1.424436e+002  2.006166e+001  1.248501e+002 -1.267413e+001  1.364238e+002
5.4048125000e+009  4.729952e+000 -7.413717e+001 -2.981605e+001 -1.372209e+002  2.002502e+001  1.238495e+002 -1.280990e+001  1.368156e+002
5.4049375000e+009  4.739455e+000 -7.488488e+001 -3.008632e+001 -1.358035e+002  2.000346e+001  1.240400e+002 -1.290331e+001  1.351620e+002
5.4050625000e+009  4.755725e+000 -7.575481e+001 -2.993436e+001 -1.442125e+002  2.006280e+001  1.242836e+002 -1.262265e+001  1.366891e+002
5.4051875000e+009  4.771604e+000 -7.562434e+001 -2.971769e+001 -1.344447e+002  2.013129e+001  1.244888e+002 -1.296825e+001  1.359518e+002
5.4053125000e+009  4.883355e+000 -7.643860e+001 -3.051017e+001 -1.438603e+002  2.003390e+001  1.241194e+002 -1.261269e+001  1.351608e+002
5.4054375000e+009  4.878394e+000 -7.711727e+001 -2.979580e+001 -1.344946e+002  2.016079e+001  1.248519e+002 -1.309515e+001  1.355727e+002
5.4055625000e+009  4.840707e+000 -7.714223e+001 -2.981441e+001 -1.354873e+002  2.007622e+001  1.245742e+002 -1.290069e+001  1.356610e+002
5.4056875000e+009  4.855559e+000 -7.745795e+001 -3.010269e+001 -1.430932e+002  2.007526e+001  1.246735e+002 -1.263100e+001  1.353203e+002
5.4058125000e+009  4.941825e+000 -7.866877e+001 -3.036671e+001 -1.394221e+002  2.017363e+001  1.251148e+002 -1.279693e+001  1.348591e+002
5.4059375000e+009  4.863905e+000 -7.788231e+001 -3.039358e+001 -1.408265e+002  2.009333e+001  1.245723e+002 -1.272813e+001  1.338899e+002
5.4060625000e+009  4.961168e+000 -7.766388e+001 -3.101118e+001 -1.468660e+002  2.013391e+001  1.245671e+002 -1.249044e+001  1.333051e+002
5.4061875000e+009  4.901131e+000 -7.921699e+001 -2.955688e+001 -1.428423e+002  2.024606e+001  1.252785e+002 -1.273632e+001  1.351641e+002
5.4063125000e+009  4.934590e+000 -7.922864e+001 -3.026916e+001 -1.454232e+002  2.018805e+001  1.250952e+002 -1.254971e+001  1.344492e+002
5.4064375000e+009  4.972733e+000 -7.931286e+001 -2.995797e+001 -1.452503e+002  2.016847e+001  1.243938e+002 -1.250042e+001  1.349633e+002
5.4065625000e+009  5.077238e+000 -7.963950e+001 -2.996802e+001 -1.415226e+002  2.025218e+001  1.248570e+002 -1.263272e+001  1.349086e+002
5.4066875000e+009  5.035958e+000 -7.989511e+001 -3.051048e+001 -1.403016e+002  2.028474e+001  1.249186e+002 -1.268309e+001  1.330181e+002
5.4068125000e+009  5.012071e+000 -8.016596e+001 -3.020404e+001 -1.444373e+002  2.016496e+001  1.247775e+002 -1.249679e+001  1.337990e+002
5.4069375000e+009  5.015439e+000 -8.091737e+001 -2.968293e+001 -1.475485e+002  2.031120e+001  1.252093e+002 -1.240751e+001  1.349112e+002
5.4070625000e+009  5.134573e+000 -8.095145e+001 -2.986012e+001 -1.462592e+002  2.035100e+001  1.251344e+002 -1.247468e+001  1.336550e+002
5.4071875000e+009  5.057590e+000 -8.121854e+001 -2.980072e+001 -1.523157e+002  2.031643e+001  1.248909e+002 -1.227125e+001  1.339715e+002
5.4073125000e+009  5.132109e+000 -8.211147e+001 -2.906944e+001 -1.412772e+002  2.035024e+001  1.250246e+002 -1.265028e+001  1.344174e+002
5.4074375000e+009  5.223088e+000 -8.149996e+001 -3.017883e+001 -1.443336e+002  2.034428e+001  1.253168e+002 -1.239435e+001  1.326642e+002
5.4075625000e+009  5.065242e+000 -8.277083e+001 -2.988007e+001 -1.482536e+002  2.041938e+001  1.251131e+002 -1.237425e+001  1.330112e+002
5.4076875000e+009  5.153214e+000 -8.301042e+001 -2.999390e+001 -1.467505e+002  2.047366e+001  1.252470e+002 -1.237573e+001  1.326784e+002
5.4078125000e+009  5.133458e+000 -8.403334e+001 -3.009611e+001 -1.459573e+002  2.048980e+001  1.252242e+002 -1.237849e+001  1.325078e+002
5.4079375000e+009  5.204044e+000 -8.391787e+001 -2.991239e+001 -1.483928e+002  2.037833e+001  1.252081e+002 -1.211868e+001  1.323889e+002
5.4080625000e+009  5.208847e+000 -8.368755e+001 -3.013444e+001 -1.482632e+002  2.047385e+001  1.250204e+002 -1.227714e+001  1.320758e+002
5.4081875000e+009  5.221971e+000 -8.437057e+001 -2.940068e+001 -1.505857e+002  2.053936e+001  1.251905e+002 -1.220620e+001  1.325175e+002
5.4083125000e+009  5.261221e+000 -8.440480e+001 -3.022446e+001 -1.521310e+002  2.052054e+001  1.249201e+002 -1.204889e+001  1.314980e+002
5.4084375000e+009  5.264983e+000 -8.406142e+001 -3.028146e+001 -1.492296e+002  2.056424e+001  1.250952e+002 -1.220979e+001  1.302586e+002
5.4085625000e+009  5.237053e+000 -8.540395e+001 -2.985933e+001 -1.515449e+002  2.058012e+001  1.250308e+002 -1.212196e+001  1.316779e+002
5.4086875000e+009  5.247128e+000 -8.553776e+001 -3.023625e+001 -1.553996e+002  2.062488e+001  1.252010e+002 -1.192411e+001  1.307001e+002
5.4088125000e+009  5.298395e+000 -8.532313e+001 -3.029483e+001 -1.503717e+002  2.059898e+001  1.248662e+002 -1.201206e+001  1.307527e+002
5.4089375000e+009  5.446951e+000 -8.607574e+001 -2.975779e+001 -1.483435e+002  2.067250e+001  1.251927e+002 -1.214245e+001  1.300931e+002
5.4090625000e+009  5.447155e+000 -8.652087e+001 -3.012648e+001 -1.468352e+002  2.063579e+001  1.251158e+002 -1.211016e+001  1.301107e+002
5.4091875000e+009  5.373852e+000 -8.551604e+001 -2.988342e+001 -1.517507e+002  2.068009e+001  1.250872e+002 -1.193559e+001  1.300095e+002
5.4093125000e+009  5.467431e+000 -8.580374e+001 -2.945748e+001 -1.527991e+002  2.073075e+001  1.246945e+002 -1.199675e+001  1.297884e+002
5.4094375000e+009  5.543694e+000 -8.661645e+001 -2.973034e+001 -1.474545e+002  2.068625e+001  1.248148e+002 -1.195484e+001  1.298985e+002
5.4095625000e+009  5.466692e+000 -8.607601e+001 -2.975077e+001 -1.552276e+002  2.073540e+001  1.245764e+002 -1.170271e+001  1.293988e+002
5.4096875000e+009  5.476597e+000 -8.667625e+001 -3.013720e+001 -1.551198e+002  2.083272e+001  1.249285e+002 -1.176017e+001  1.285560e+002
5.4098125000e+009  5.585404e+000 -8.808618e+001 -3.001075e+001 -1.515882e+002  2.079094e+001  1.248886e+002 -1.177528e+001  1.291165e+002
5.4099375000e+009  5.500712e+000 -8.736227e+001 -2.966516e+001 -1.522628e+002  2.086701e+001  1.248603e+002 -1.182040e+001  1.288043e+002
5.4100625000e+009  5.733111e+000 -8.839694e+001 -2.944373e+001 -1.477791e+002  2.084940e+001  1.254328e+002 -1.173275e+001  1.292708e+002
5.4101875000e+009  5.714561e+000 -8.810438e+001 -3.009012e+001 -1.552071e+002  2.086427e+001  1.247518e+002 -1.148378e+001  1.280198e+002
5.4103125000e+009  5.750008e+000 -8.762059e+001 -3.029010e+001 -1.475763e+002  2.087092e+001  1.244586e+002 -1.180336e+001  1.268419e+002
5.4104375000e+009  5.566392e+000 -8.837148e+001 -3.009824e+001 -1.569091e+002  2.096648e+001  1.247471e+002 -1.158506e+001  1.262384e+002
5.4105625000e+009  5.709591e+000 -8.909554e+001 -3.060359e+001 -1.542313e+002  2.099428e+001  1.247934e+002 -1.147412e+001  1.262044e+002
5.4106875000e+009  5.647949e+000 -8.983260e+001 -3.022195e+001 -1.552308e+002  2.106452e+001  1.249614e+002 -1.138079e+001  1.257600e+002
5.4108125000e+009  5.869406e+000 -8.901225e+001 -2.973943e+001 -1.512939e+002  2.098922e+001  1.248606e+002 -1.145556e+001  1.277081e+002
5.4109375000e+009  5.842563e+000 -9.024843e+001 -2.939818e+001 -1.558945e+002  2.099815e+001  1.247739e+002 -1.136335e+001  1.283606e+002
5.4110625000e+009  5.684361e+000 -8.872514e+001 -3.013423e+001 -1.553835e+002  2.106881e+001  1.241187e+002 -1.155129e+001  1.258077e+002
5.4111875000e+009  5.872250e+000 -8.976632e+001 -2.877555e+001 -1.538191e+002  2.107382e+001  1.248633e+002 -1.132956e+001  1.280332e+002
5.4113125000e+009  5.922423e+000 -9.007739e+001 -2.959924e+001 -1.568055e+002  2.115526e+001  1.242976e+002 -1.112849e+001  1.267985e+002
5.4114375000e+009  5.723119e+000 -9.006196e+001 -2.955898e+001 -1.565782e+002  2.117426e+001  1.242476e+002 -1.132098e+001  1.253109e+002
5.4115625000e+009  5.763715e+000 -8.867851e+001 -2.948444e+001 -1.510511e+002  2.114250e+001  1.240513e+002 -1.144548e+001  1.264367e+002
5.4116875000e+009  5.756096e+000 -9.102142e+001 -2.948478e+001 -1.519627e+002  2.123417e+001  1.243011e+002 -1.132127e+001  1.271524e+002
5.4118125000e+009  5.822549e+000 -8.959593e+001 -3.017131e+001 -1.557897e+002  2.124677e+001  1.239990e+002 -1.105072e+001  1.258426e+002
5.4119375000e+009  6.053064e+000 -9.046609e+001 -2.933912e+001 -1.495237e+002  2.122687e+001  1.243198e+002 -1.127484e+001  1.250948e+002
5.4120625000e+009  6.338678e+000 -9.211124e+001 -2.947148e+001 -1.560356e+002  2.123130e+001  1.249014e+002 -1.097304e+001  1.260805e+002
5.4121875000e+009  5.893927e+000 -9.050210e+001 -2.939426e+001 -1.541707e+002  2.129449e+001  1.236703e+002 -1.102756e+001  1.249178e+002
5.4123125000e+009  6.165832e+000 -9.164146e+001 -2.928440e+001 -1.571266e+002  2.126183e+001  1.239873e+002 -1.101553e+001  1.237138e+002
5.4124375000e+009  6.162702e+000 -9.106988e+001 -2.973959e+001 -1.578227e+002  2.133005e+001  1.238566e+002 -1.085327e+001  1.246908e+002
5.4125625000e+009  5.732632e+000 -9.072335e+001 -2.957989e+001 -1.584685e+002  2.143521e+001  1.234440e+002 -1.078185e+001  1.243177e+002
5.4126875000e+009  6.154178e+000 -9.129021e+001 -2.971912e+001 -1.582023e+002  2.138179e+001  1.237368e+002 -1.065637e+001  1.237955e+002
5.4128125000e+009  6.341411e+000 -9.139116e+001 -2.931717e+001 -1.582047e+002  2.137085e+001  1.236513e+002 -1.071074e+001  1.231005e+002
5.4129375000e+009  5.950550e+000 -9.057346e+001 -2.997844e+001 -1.621750e+002  2.147416e+001  1.232755e+002 -1.057592e+001  1.234395e+002
5.4130625000e+009  6.066257e+000 -9.223950e+001 -3.001427e+001 -1.547975e+002  2.152388e+001  1.235475e+002 -1.074206e+001  1.238640e+002
5.4131875000e+009  6.056816e+000 -9.183338e+001 -2.998651e+001 -1.583859e+002  2.154449e+001  1.232974e+002 -1.067703e+001  1.244408e+002
5.4133125000e+009  5.797237e+000 -9.245916e+001 -3.078995e+001 -1.546553e+002  2.160795e+001  1.230308e+002 -1.080573e+001  1.230161e+002
5.4134375000e+009  5.874993e+000 -9.223154e+001 -2.969999e+001 -1.624189e+002  2.164024e+001  1.230769e+002 -1.056428e+001  1.238547e+002
5.4135625000e+009  6.258901e+000 -9.311044e+001 -2.996120e+001 -1.588366e+002  2.161535e+001  1.235109e+002 -1.055599e+001  1.236815e+002
5.4136875000e+009  5.840931e+000 -9.248370e+001 -3.049691e+001 -1.598739e+002  2.173956e+001  1.230294e+002 -1.045473e+001  1.240151e+002
5.4138125000e+009  6.058803e+000 -9.319840e+001 -2.929240e+001 -1.530898e+002  2.172641e+001  1.234042e+002 -1.058232e+001  1.251815e+002
5.4139375000e+009  5.659575e+000 -9.391550e+001 -2.956051e+001 -1.550346e+002  2.183671e+001  1.228798e+002 -1.054254e+001  1.252125e+002
5.4140625000e+009  5.930428e+000 -9.405432e+001 -3.028141e+001 -1.603660e+002  2.182933e+001  1.226182e+002 -1.034386e+001  1.229652e+002
5.4141875000e+009  5.721787e+000 -9.386629e+001 -2.999673e+001 -1.544851e+002  2.188972e+001  1.227092e+002 -1.053293e+001  1.246851e+002
5.4143125000e+009  5.935725e+000 -9.433989e+001 -2.944612e+001 -1.609252e+002  2.185460e+001  1.231119e+002 -1.042003e+001  1.253739e+002
5.4144375000e+009  5.698910e+000 -9.591811e+001 -2.981150e+001 -1.619861e+002  2.195873e+001  1.227111e+002 -1.037032e+001  1.245483e+002
5.4145625000e+009  5.794924e+000 -9.541634e+001 -2.933738e+001 -1.575981e+002  2.198133e+001  1.219608e+002 -1.028443e+001  1.235713e+002
5.4146875000e+009  6.122010e+000 -9.432253e+001 -2.934674e+001 -1.632269e+002  2.195211e+001  1.230792e+002 -1.019079e+001  1.256219e+002
5.4148125000e+009  5.624270e+000 -9.611591e+001 -3.004790e+001 -1.628210e+002  2.210341e+001  1.219093e+002 -1.012920e+001  1.231840e+002
5.4149375000e+009  5.928792e+000 -9.510951e+001 -3.039551e+001 -1.598445e+002  2.197484e+001  1.217110e+002 -1.038095e+001  1.224829e+002
5.4150625000e+009  5.628226e+000 -9.617522e+001 -2.946098e+001 -1.656557e+002  2.211333e+001  1.226646e+002 -1.011369e+001  1.257846e+002
5.4151875000e+009  5.391567e+000 -9.712230e+001 -3.007128e+001 -1.669767e+002  2.224031e+001  1.208785e+002 -9.983360e+000  1.221386e+002
5.4153125000e+009  5.518142e+000 -9.732128e+001 -2.969153e+001 -1.665793e+002  2.225540e+001  1.221267e+002 -9.958441e+000  1.247654e+002
5.4154375000e+009  5.827256e+000 -9.620261e+001 -2.972332e+001 -1.601077e+002  2.215855e+001  1.222229e+002 -1.025901e+001  1.252845e+002
5.4155625000e+009  5.423152e+000 -9.664340e+001 -2.984713e+001 -1.662328e+002  2.229036e+001  1.216255e+002 -1.000785e+001  1.245771e+002
5.4156875000e+009  5.217337e+000 -9.765973e+001 -3.075360e+001 -1.571887e+002  2.226188e+001  1.217316e+002 -1.042774e+001  1.246856e+002
5.4158125000e+009  5.471552e+000 -9.727238e+001 -2.999926e+001 -1.619534e+002  2.230282e+001  1.214965e+002 -1.021173e+001  1.247904e+002
5.4159375000e+009  5.441360e+000 -9.782198e+001 -2.979637e+001 -1.675809e+002  2.227675e+001  1.211567e+002 -1.015046e+001  1.240870e+002
5.4160625000e+009  5.264084e+000 -9.847008e+001 -3.041269e+001 -1.658277e+002  2.242936e+001  1.209444e+002 -9.932127e+000  1.237358e+002
5.4161875000e+009  5.751634e+000 -9.814868e+001 -2.980992e+001 -1.691805e+002  2.233825e+001  1.212994e+002 -9.994718e+000  1.239440e+002
5.4163125000e+009  5.579953e+000 -9.822240e+001 -2.985344e+001 -1.662989e+002  2.246246e+001  1.208884e+002 -9.855974e+000  1.240097e+002
5.4164375000e+009  5.180008e+000 -9.916856e+001 -3.036836e+001 -1.668539e+002  2.258107e+001  1.202116e+002 -9.757037e+000  1.233020e+002
5.4165625000e+009  5.628161e+000 -9.885157e+001 -2.975428e+001 -1.611608e+002  2.253328e+001  1.211885e+002 -9.953487e+000  1.254323e+002
5.4166875000e+009  5.071129e+000 -9.962145e+001 -3.017683e+001 -1.652445e+002  2.255053e+001  1.200851e+002 -1.003294e+001  1.236065e+002
5.4168125000e+009  5.395574e+000 -9.932931e+001 -2.984900e+001 -1.672227e+002  2.258142e+001  1.196064e+002 -9.692341e+000  1.229102e+002
5.4169375000e+009  5.596116e+000 -9.920733e+001 -3.010948e+001 -1.683142e+002  2.257814e+001  1.202759e+002 -9.787186e+000  1.239673e+002
5.4170625000e+009  5.261966e+000 -1.003812e+002 -3.000074e+001 -1.683465e+002  2.271968e+001  1.195604e+002 -9.668673e+000  1.227514e+002
5.4171875000e+009  5.087834e+000 -1.010530e+002 -3.030526e+001 -1.657811e+002  2.261421e+001  1.193395e+002 -1.001073e+001  1.228082e+002
5.4173125000e+009  5.107523e+000 -1.012325e+002 -3.061858e+001 -1.698242e+002  2.270507e+001  1.202248e+002 -9.930313e+000  1.242537e+002
5.4174375000e+009  5.248505e+000 -1.009146e+002 -3.029474e+001 -1.701964e+002  2.269602e+001  1.195262e+002 -9.791963e+000  1.233924e+002
5.4175625000e+009  5.150129e+000 -1.023467e+002 -3.025078e+001 -1.702516e+002  2.279202e+001  1.192284e+002 -9.702226e+000  1.234715e+002
5.4176875000e+009  5.425977e+000 -1.007711e+002 -3.048815e+001 -1.681684e+002  2.267913e+001  1.196061e+002 -9.966243e+000  1.238402e+002
5.4178125000e+009  4.906240e+000 -1.009014e+002 -3.039609e+001 -1.748645e+002  2.279755e+001  1.183151e+002 -9.764639e+000  1.221207e+002
5.4179375000e+009  4.954324e+000 -1.018394e+002 -3.019603e+001 -1.692037e+002  2.297993e+001  1.189769e+002 -9.505742e+000  1.236692e+002
5.4180625000e+009  5.130659e+000 -1.022853e+002 -3.085086e+001 -1.690947e+002  2.287672e+001  1.192052e+002 -9.782457e+000  1.237956e+002
5.4181875000e+009  5.143084e+000 -1.018180e+002 -3.004400e+001 -1.668962e+002  2.297942e+001  1.190536e+002 -9.549728e+000  1.245391e+002
5.4183125000e+009  4.903533e+000 -1.028613e+002 -3.038368e+001 -1.692729e+002  2.299203e+001  1.181781e+002 -9.505807e+000  1.234468e+002
5.4184375000e+009  5.216358e+000 -1.014139e+002 -3.050855e+001 -1.709602e+002  2.288276e+001  1.187230e+002 -9.722150e+000  1.236623e+002
5.4185625000e+009  4.969121e+000 -1.030494e+002 -3.104536e+001 -1.656165e+002  2.305716e+001  1.176156e+002 -9.614668e+000  1.226564e+002
5.4186875000e+009  4.980238e+000 -1.030558e+002 -3.052815e+001 -1.715849e+002  2.308774e+001  1.179210e+002 -9.454698e+000  1.228449e+002
5.4188125000e+009  5.081548e+000 -1.032158e+002 -2.985520e+001 -1.716481e+002  2.315830e+001  1.174458e+002 -9.282790e+000  1.230026e+002
5.4189375000e+009  4.965533e+000 -1.032676e+002 -3.079810e+001 -1.746482e+002  2.305556e+001  1.180389e+002 -9.680633e+000  1.229456e+002
5.4190625000e+009  5.029155e+000 -1.036777e+002 -2.978418e+001 -1.746071e+002  2.318543e+001  1.171443e+002 -9.280345e+000  1.228006e+002
5.4191875000e+009  4.933864e+000 -1.041264e+002 -3.081752e+001 -1.682066e+002  2.308202e+001  1.176610e+002 -9.703160e+000  1.235887e+002
5.4193125000e+009  4.780400e+000 -1.058549e+002 -3.023454e+001 -1.745984e+002  2.320485e+001  1.169118e+002 -9.408102e+000  1.227521e+002
5.4194375000e+009  4.946764e+000 -1.045516e+002 -3.031205e+001 -1.708195e+002  2.339580e+001  1.168971e+002 -9.048384e+000  1.234718e+002
5.4195625000e+009  4.805829e+000 -1.048318e+002 -3.087833e+001 -1.795433e+002  2.322284e+001  1.168884e+002 -9.415128e+000  1.222906e+002
5.4196875000e+009  4.809014e+000 -1.063375e+002 -3.116032e+001 -1.739354e+002  2.326782e+001  1.168653e+002 -9.500913e+000  1.228940e+002
5.4198125000e+009  4.741757e+000 -1.062013e+002 -3.081762e+001 -1.727147e+002  2.335882e+001  1.173964e+002 -9.345946e+000  1.242219e+002
5.4199375000e+009  5.019914e+000 -1.036385e+002 -3.015912e+001 -1.710271e+002  2.327952e+001  1.169327e+002 -9.326159e+000  1.239500e+002
5.4200625000e+009  4.726901e+000 -1.064267e+002 -3.076633e+001 -1.731444e+002  2.344136e+001  1.159328e+002 -9.202554e+000  1.227264e+002
5.4201875000e+009  4.814157e+000 -1.059577e+002 -3.052813e+001 -1.734487e+002  2.337866e+001  1.161057e+002 -9.297670e+000  1.231091e+002
5.4203125000e+009  4.864253e+000 -1.048085e+002 -3.018082e+001 -1.730733e+002  2.346051e+001  1.163313e+002 -9.092524e+000  1.238215e+002
5.4204375000e+009  4.713562e+000 -1.064087e+002 -3.044578e+001 -1.720102e+002  2.339221e+001  1.161324e+002 -9.336379e+000  1.236543e+002
5.4205625000e+009  4.730384e+000 -1.069853e+002 -3.048936e+001 -1.723283e+002  2.363111e+001  1.153303e+002 -8.977332e+000  1.230390e+002
5.4206875000e+009  4.716283e+000 -1.068527e+002 -3.102669e+001 -1.797867e+002  2.359528e+001  1.145249e+002 -9.076246e+000  1.210534e+002
5.4208125000e+009  4.671822e+000 -1.070785e+002 -3.097210e+001  1.777586e+002  2.348046e+001  1.158315e+002 -9.235979e+000  1.229157e+002
5.4209375000e+009  4.557013e+000 -1.077958e+002 -3.059602e+001 -1.718223e+002  2.362336e+001  1.146617e+002 -9.131930e+000  1.222619e+002
5.4210625000e+009  4.697276e+000 -1.060907e+002 -3.088208e+001 -1.720638e+002  2.362938e+001  1.146720e+002 -9.013106e+000  1.229147e+002
5.4211875000e+009  4.667541e+000 -1.073364e+002 -3.102373e+001 -1.731512e+002  2.372882e+001  1.150992e+002 -8.924953e+000  1.236399e+002
5.4213125000e+009  4.524189e+000 -1.081382e+002 -3.079435e+001 -1.759099e+002  2.392886e+001  1.148521e+002 -8.635802e+000  1.234842e+002
5.4214375000e+009  4.547261e+000 -1.082721e+002 -3.133479e+001 -1.782901e+002  2.365742e+001  1.144461e+002 -9.155817e+000  1.223842e+002
5.4215625000e+009  4.531105e+000 -1.083278e+002 -3.078166e+001 -1.761926e+002  2.364951e+001  1.135427e+002 -9.105095e+000  1.218544e+002
5.4216875000e+009  4.460869e+000 -1.086495e+002 -3.073045e+001 -1.780876e+002  2.389728e+001  1.147393e+002 -8.713428e+000  1.241954e+002
5.4218125000e+009  4.518532e+000 -1.076806e+002 -3.049334e+001 -1.790164e+002  2.367706e+001  1.136317e+002 -8.971055e+000  1.225907e+002
5.4219375000e+009  4.510817e+000 -1.089099e+002 -3.073017e+001 -1.784026e+002  2.374575e+001  1.136918e+002 -8.982311e+000  1.226055e+002
5.4220625000e+009  4.471825e+000 -1.082393e+002 -3.053135e+001 -1.764450e+002  2.383363e+001  1.134278e+002 -8.851890e+000  1.228712e+002
5.4221875000e+009  4.529535e+000 -1.089494e+002 -3.039176e+001 -1.759551e+002  2.377979e+001  1.137913e+002 -8.956159e+000  1.235402e+002
5.4223125000e+009  4.430935e+000 -1.090808e+002 -3.024913e+001 -1.772034e+002  2.384336e+001  1.130227e+002 -8.830785e+000  1.228420e+002
5.4224375000e+009  4.404587e+000 -1.099162e+002 -3.073208e+001  1.792862e+002  2.394697e+001  1.128201e+002 -8.751395e+000  1.224080e+002
5.4225625000e+009  4.433639e+000 -1.092999e+002 -3.070466e+001 -1.756710e+002  2.386212e+001  1.125838e+002 -8.852730e+000  1.226569e+002
5.4226875000e+009  4.440039e+000 -1.099912e+002 -3.161078e+001  1.788601e+002  2.378605e+001  1.117227e+002 -9.027401e+000  1.208927e+002
5.4228125000e+009  4.267035e+000 -1.112171e+002 -3.103628e+001 -1.792688e+002  2.409040e+001  1.120628e+002 -8.622617e+000  1.224806e+002
5.4229375000e+009  4.372587e+000 -1.101286e+002 -3.074035e+001  1.794703e+002  2.397625e+001  1.127991e+002 -8.713775e+000  1.237569e+002
5.4230625000e+009  4.308475e+000 -1.108053e+002 -3.121764e+001 -1.789215e+002  2.393844e+001  1.108218e+002 -8.858838e+000  1.205112e+002
5.4231875000e+009  4.299218e+000 -1.107381e+002 -3.122150e+001  1.770044e+002  2.400775e+001  1.109966e+002 -8.749216e+000  1.211921e+002
5.4233125000e+009  4.243118e+000 -1.108082e+002 -3.136319e+001  1.798724e+002  2.401839e+001  1.115714e+002 -8.734973e+000  1.225374e+002
5.4234375000e+009  4.270426e+000 -1.106685e+002 -3.031669e+001  1.758345e+002  2.414956e+001  1.115655e+002 -8.434986e+000  1.227991e+002
5.4235625000e+009  4.229466e+000 -1.117916e+002 -3.159938e+001  1.769556e+002  2.414437e+001  1.109922e+002 -8.581768e+000  1.221627e+002
5.4236875000e+009  4.221687e+000 -1.110927e+002 -3.086045e+001 -1.796627e+002  2.413590e+001  1.102773e+002 -8.567946e+000  1.213033e+002
5.4238125000e+009  4.205117e+000 -1.116760e+002 -3.100635e+001  1.763742e+002  2.408018e+001  1.104827e+002 -8.635752e+000  1.218676e+002
5.4239375000e+009  4.166861e+000 -1.123003e+002 -3.159698e+001  1.772894e+002  2.422251e+001  1.108610e+002 -8.494925e+000  1.231453e+002
5.4240625000e+009  4.161577e+000 -1.115976e+002 -3.093164e+001  1.787053e+002  2.423552e+001  1.101910e+002 -8.437807e+000  1.220754e+002
5.4241875000e+009  4.180603e+000 -1.119057e+002 -3.124917e+001  1.739303e+002  2.427343e+001  1.096594e+002 -8.367332e+000  1.215277e+002
5.4243125000e+009  4.154344e+000 -1.128237e+002 -3.212567e+001 -1.799086e+002  2.421329e+001  1.101311e+002 -8.594144e+000  1.230809e+002
5.4244375000e+009  4.116171e+000 -1.121610e+002 -3.160962e+001  1.789918e+002  2.424991e+001  1.096852e+002 -8.450924e+000  1.226279e+002
5.4245625000e+009  4.102675e+000 -1.127500e+002 -3.157681e+001  1.774482e+002  2.425418e+001  1.091092e+002 -8.489010e+000  1.215734e+002
5.4246875000e+009  4.056671e+000 -1.131728e+002 -3.203564e+001 -1.796718e+002  2.442171e+001  1.099960e+002 -8.288978e+000  1.232663e+002
5.4248125000e+009  4.028875e+000 -1.128231e+002 -3.079018e+001  1.792292e+002  2.434928e+001  1.090840e+002 -8.253754e+000  1.224142e+002
5.4249375000e+009  4.022773e+000 -1.129790e+002 -3.187338e+001  1.784317e+002  2.432766e+001  1.087111e+002 -8.382068e+000  1.218467e+002
5.4250625000e+009  3.962144e+000 -1.131706e+002 -3.122718e+001  1.734780e+002  2.440232e+001  1.086352e+002 -8.247265e+000  1.218739e+002
5.4251875000e+009  3.995654e+000 -1.133219e+002 -3.086860e+001  1.790146e+002  2.442551e+001  1.087357e+002 -8.151015e+000  1.230020e+002
5.4253125000e+009  3.963617e+000 -1.136214e+002 -3.199402e+001  1.733430e+002  2.444361e+001  1.072333e+002 -8.308022e+000  1.204004e+002
5.4254375000e+009  3.952662e+000 -1.136185e+002 -3.188878e+001  1.758698e+002  2.445575e+001  1.083261e+002 -8.273191e+000  1.231095e+002
5.4255625000e+009  3.865363e+000 -1.138328e+002 -3.152621e+001  1.752377e+002  2.443222e+001  1.080687e+002 -8.341073e+000  1.229208e+002
5.4256875000e+009  3.794264e+000 -1.143925e+002 -3.142875e+001  1.797221e+002  2.445168e+001  1.075171e+002 -8.330276e+000  1.227899e+002
5.4258125000e+009  3.806494e+000 -1.145205e+002 -3.223811e+001  1.717843e+002  2.455396e+001  1.076884e+002 -8.274922e+000  1.229678e+002
5.4259375000e+009  3.734084e+000 -1.147126e+002 -3.183203e+001  1.747904e+002  2.449825e+001  1.070960e+002 -8.380333e+000  1.226836e+002
5.4260625000e+009  3.647295e+000 -1.150241e+002 -3.123791e+001  1.782721e+002  2.455407e+001  1.072005e+002 -8.265442e+000  1.237437e+002
5.4261875000e+009  3.630875e+000 -1.151012e+002 -3.208469e+001  1.730564e+002  2.463683e+001  1.073816e+002 -8.190651e+000  1.239858e+002
5.4263125000e+009  3.569176e+000 -1.149263e+002 -3.145347e+001  1.725634e+002  2.457693e+001  1.063338e+002 -8.334692e+000  1.227407e+002
5.4264375000e+009  3.562620e+000 -1.152661e+002 -3.140985e+001  1.772173e+002  2.460894e+001  1.058245e+002 -8.326191e+000  1.226220e+002
5.4265625000e+009  3.524693e+000 -1.157496e+002 -3.224728e+001  1.771397e+002  2.467466e+001  1.065010e+002 -8.262899e+000  1.245227e+002
5.4266875000e+009  3.517474e+000 -1.158653e+002 -3.175292e+001  1.782224e+002  2.469675e+001  1.056341e+002 -8.258814e+000  1.230946e+002
5.4268125000e+009  3.429890e+000 -1.162932e+002 -3.176448e+001  1.743325e+002  2.470682e+001  1.053083e+002 -8.354575e+000  1.228493e+002
5.4269375000e+009  3.431492e+000 -1.161811e+002 -3.148680e+001  1.722753e+002  2.471318e+001  1.056150e+002 -8.326849e+000  1.240779e+002
5.4270625000e+009  3.385336e+000 -1.171451e+002 -3.280773e+001 -1.779512e+002  2.474310e+001  1.054189e+002 -8.366973e+000  1.248195e+002
5.4271875000e+009  3.244404e+000 -1.166542e+002 -3.179130e+001  1.755073e+002  2.477958e+001  1.046089e+002 -8.269119e+000  1.233429e+002
5.4273125000e+009  3.208026e+000 -1.176002e+002 -3.239883e+001  1.717790e+002  2.482547e+001  1.050952e+002 -8.301588e+000  1.248054e+002
5.4274375000e+009  3.229636e+000 -1.169559e+002 -3.193790e+001  1.720565e+002  2.481628e+001  1.045105e+002 -8.329233e+000  1.240338e+002
5.4275625000e+009  3.198025e+000 -1.178727e+002 -3.179663e+001  1.732145e+002  2.483861e+001  1.044569e+002 -8.290406e+000  1.244594e+002
5.4276875000e+009  3.089374e+000 -1.174799e+002 -3.206560e+001  1.716208e+002  2.483871e+001  1.041699e+002 -8.366060e+000  1.245908e+002
5.4278125000e+009  3.026922e+000 -1.178404e+002 -3.128312e+001  1.724752e+002  2.493215e+001  1.035450e+002 -8.233132e+000  1.237199e+002
5.4279375000e+009  3.030815e+000 -1.184614e+002 -3.207694e+001  1.723203e+002  2.488009e+001  1.032579e+002 -8.384254e+000  1.238948e+002
5.4280625000e+009  2.978305e+000 -1.181965e+002 -3.139129e+001  1.712994e+002  2.486979e+001  1.037939e+002 -8.336369e+000  1.253977e+002
5.4281875000e+009  2.914262e+000 -1.188205e+002 -3.223512e+001  1.745510e+002  2.494835e+001  1.027531e+002 -8.347842e+000  1.241751e+002
5.4283125000e+009  2.990423e+000 -1.191840e+002 -3.192606e+001  1.757105e+002  2.497321e+001  1.023534e+002 -8.330185e+000  1.238016e+002
5.4284375000e+009  2.836865e+000 -1.186823e+002 -3.240191e+001  1.757086e+002  2.494737e+001  1.024700e+002 -8.408063e+000  1.254781e+002
5.4285625000e+009  2.904305e+000 -1.191145e+002 -3.153499e+001  1.737747e+002  2.504173e+001  1.023072e+002 -8.251777e+000  1.245767e+002
5.4286875000e+009  2.730280e+000 -1.194401e+002 -3.224257e+001  1.748742e+002  2.497786e+001  1.018106e+002 -8.417623e+000  1.251170e+002
5.4288125000e+009  2.731975e+000 -1.195637e+002 -3.205637e+001  1.707424e+002  2.503534e+001  1.018762e+002 -8.430691e+000  1.252144e+002
5.4289375000e+009  2.798096e+000 -1.198671e+002 -3.242510e+001  1.765159e+002  2.502675e+001  1.015216e+002 -8.451607e+000  1.256751e+002
5.4290625000e+009  2.661035e+000 -1.197659e+002 -3.235372e+001  1.698091e+002  2.509122e+001  1.007880e+002 -8.398804e+000  1.241740e+002
5.4291875000e+009  2.529023e+000 -1.202725e+002 -3.257926e+001  1.700109e+002  2.506369e+001  1.007077e+002 -8.498247e+000  1.250747e+002
5.4293125000e+009  2.682237e+000 -1.204490e+002 -3.180836e+001  1.707728e+002  2.509705e+001  1.008170e+002 -8.471375e+000  1.259135e+002
5.4294375000e+009  2.529923e+000 -1.205929e+002 -3.250037e+001  1.674125e+002  2.508875e+001  1.000812e+002 -8.473800e+000  1.251794e+002
5.4295625000e+009  2.460454e+000 -1.211790e+002 -3.290396e+001  1.718366e+002  2.514097e+001  1.003742e+002 -8.496546e+000  1.259902e+002
5.4296875000e+009  2.543971e+000 -1.213316e+002 -3.283621e+001  1.735643e+002  2.515958e+001  9.975906e+001 -8.480795e+000  1.255734e+002
5.4298125000e+009  2.353618e+000 -1.213524e+002 -3.284926e+001  1.723749e+002  2.519221e+001  9.941757e+001 -8.468998e+000  1.251263e+002
5.4299375000e+009  2.345111e+000 -1.216483e+002 -3.279119e+001  1.704842e+002  2.519624e+001  9.934109e+001 -8.452121e+000  1.262268e+002
5.4300625000e+009  2.327491e+000 -1.220654e+002 -3.226326e+001  1.679910e+002  2.518745e+001  9.891763e+001 -8.554824e+000  1.259023e+002
5.4301875000e+009  2.328957e+000 -1.218157e+002 -3.234683e+001  1.659720e+002  2.521431e+001  9.901617e+001 -8.621948e+000  1.256743e+002
5.4303125000e+009  2.228530e+000 -1.223026e+002 -3.289057e+001  1.682419e+002  2.518791e+001  9.865189e+001 -8.634405e+000  1.264520e+002
5.4304375000e+009  2.190051e+000 -1.219532e+002 -3.215904e+001  1.696899e+002  2.526773e+001  9.851859e+001 -8.550319e+000  1.257319e+002
5.4305625000e+009  2.227277e+000 -1.227959e+002 -3.241269e+001  1.690232e+002  2.529181e+001  9.787045e+001 -8.545327e+000  1.259833e+002
5.4306875000e+009  2.041085e+000 -1.225403e+002 -3.235840e+001  1.678044e+002  2.520454e+001  9.776779e+001 -8.638860e+000  1.261294e+002
5.4308125000e+009  2.193002e+000 -1.230501e+002 -3.197944e+001  1.683860e+002  2.529456e+001  9.714876e+001 -8.610903e+000  1.257090e+002
5.4309375000e+009  2.088630e+000 -1.235527e+002 -3.285511e+001  1.687997e+002  2.527837e+001  9.730225e+001 -8.639569e+000  1.263585e+002
5.4310625000e+009  1.945420e+000 -1.233738e+002 -3.268686e+001  1.687699e+002  2.528737e+001  9.680917e+001 -8.613304e+000  1.267411e+002
5.4311875000e+009  1.987828e+000 -1.241622e+002 -3.255950e+001  1.748003e+002  2.530952e+001  9.614060e+001 -8.548223e+000  1.265419e+002
5.4313125000e+009  2.054369e+000 -1.240583e+002 -3.251297e+001  1.684146e+002  2.533038e+001  9.614769e+001 -8.624706e+000  1.264444e+002
5.4314375000e+009  1.808158e+000 -1.244791e+002 -3.265001e+001  1.686557e+002  2.530444e+001  9.583397e+001 -8.657321e+000  1.268649e+002
5.4315625000e+009  1.893709e+000 -1.250107e+002 -3.252131e+001  1.683098e+002  2.536277e+001  9.538612e+001 -8.693604e+000  1.269824e+002
5.4316875000e+009  1.835170e+000 -1.248394e+002 -3.298958e+001  1.714320e+002  2.533067e+001  9.515650e+001 -8.668767e+000  1.267595e+002
5.4318125000e+009  1.815993e+000 -1.247731e+002 -3.297238e+001  1.718178e+002  2.536417e+001  9.481773e+001 -8.655051e+000  1.271451e+002
5.4319375000e+009  1.840783e+000 -1.252127e+002 -3.350644e+001  1.644651e+002  2.542668e+001  9.481344e+001 -8.686811e+000  1.270288e+002
5.4320625000e+009  1.848248e+000 -1.251279e+002 -3.325534e+001  1.692623e+002  2.541572e+001  9.485490e+001 -8.705768e+000  1.271792e+002
5.4321875000e+009  1.534123e+000 -1.255088e+002 -3.255370e+001  1.678208e+002  2.537418e+001  9.414555e+001 -8.746710e+000  1.272739e+002
5.4323125000e+009  1.674363e+000 -1.254394e+002 -3.257070e+001  1.681660e+002  2.537859e+001  9.378862e+001 -8.783908e+000  1.278142e+002
5.4324375000e+009  1.643521e+000 -1.261608e+002 -3.273499e+001  1.731041e+002  2.548400e+001  9.329472e+001 -8.635141e+000  1.267219e+002
5.4325625000e+009  1.561258e+000 -1.257797e+002 -3.302410e+001  1.675460e+002  2.544512e+001  9.392484e+001 -8.744128e+000  1.282105e+002
5.4326875000e+009  1.661838e+000 -1.268494e+002 -3.275479e+001  1.648661e+002  2.548065e+001  9.261404e+001 -8.787396e+000  1.275698e+002
5.4328125000e+009  1.562701e+000 -1.268585e+002 -3.328536e+001  1.689085e+002  2.541051e+001  9.243899e+001 -8.769955e+000  1.275153e+002
5.4329375000e+009  1.545432e+000 -1.266165e+002 -3.275839e+001  1.675348e+002  2.540381e+001  9.252770e+001 -8.834978e+000  1.282429e+002
5.4330625000e+009  1.509450e+000 -1.268284e+002 -3.221828e+001  1.667682e+002  2.547858e+001  9.244086e+001 -8.841823e+000  1.279395e+002
5.4331875000e+009  1.517209e+000 -1.270738e+002 -3.300494e+001  1.627541e+002  2.551600e+001  9.137844e+001 -8.799687e+000  1.274836e+002
5.4333125000e+009  1.327979e+000 -1.276821e+002 -3.354173e+001  1.657176e+002  2.546599e+001  9.186571e+001 -8.808172e+000  1.283597e+002
5.4334375000e+009  1.343364e+000 -1.276544e+002 -3.334819e+001  1.687777e+002  2.550010e+001  9.138948e+001 -8.762145e+000  1.280563e+002
5.4335625000e+009  1.331587e+000 -1.278678e+002 -3.389775e+001  1.642284e+002  2.548136e+001  9.150433e+001 -8.776379e+000  1.286767e+002
5.4336875000e+009  1.215886e+000 -1.282642e+002 -3.330336e+001  1.664456e+002  2.550742e+001  9.050903e+001 -8.826886e+000  1.284611e+002
5.4338125000e+009  1.291450e+000 -1.278662e+002 -3.265004e+001  1.659707e+002  2.554377e+001  9.095380e+001 -8.837130e+000  1.293021e+002
5.4339375000e+009  1.175405e+000 -1.282786e+002 -3.342484e+001  1.699274e+002  2.548392e+001  9.038893e+001 -8.850965e+000  1.289267e+002
5.4340625000e+009  1.117587e+000 -1.290559e+002 -3.320682e+001  1.702016e+002  2.548555e+001  8.975594e+001 -8.899099e+000  1.286371e+002
5.4341875000e+009  1.166551e+000 -1.289587e+002 -3.334332e+001  1.675155e+002  2.550077e+001  8.913203e+001 -8.921939e+000  1.284894e+002
5.4343125000e+009  1.026569e+000 -1.289528e+002 -3.386880e+001  1.659996e+002  2.542028e+001  9.010312e+001 -8.899360e+000  1.300588e+002
5.4344375000e+009  1.027532e+000 -1.295376e+002 -3.293589e+001  1.669289e+002  2.558015e+001  8.863349e+001 -8.884685e+000  1.285999e+002
5.4345625000e+009  1.008178e+000 -1.294477e+002 -3.309342e+001  1.650725e+002  2.545886e+001  8.877444e+001 -8.995854e+000  1.291355e+002
5.4346875000e+009  9.646001e-001 -1.296910e+002 -3.378127e+001  1.668287e+002  2.537978e+001  8.868295e+001 -8.982716e+000  1.295685e+002
5.4348125000e+009  9.256930e-001 -1.293778e+002 -3.336333e+001  1.633795e+002  2.550169e+001  8.796949e+001 -8.970134e+000  1.295315e+002
5.4349375000e+009  9.469988e-001 -1.293423e+002 -3.329069e+001  1.690515e+002  2.568864e+001  8.801843e+001 -8.763697e+000  1.295196e+002
5.4350625000e+009  9.011809e-001 -1.301343e+002 -3.314871e+001  1.685884e+002  2.555347e+001  8.753970e+001 -8.887973e+000  1.292537e+002
5.4351875000e+009  8.115930e-001 -1.305688e+002 -3.341721e+001  1.625790e+002  2.565289e+001  8.766471e+001 -8.843513e+000  1.296741e+002
5.4353125000e+009  8.263909e-001 -1.305084e+002 -3.371070e+001  1.634223e+002  2.545265e+001  8.662283e+001 -9.046566e+000  1.296842e+002
5.4354375000e+009  8.050427e-001 -1.304248e+002 -3.325420e+001  1.667302e+002  2.556075e+001  8.687212e+001 -8.878980e+000  1.296892e+002
5.4355625000e+009  6.923867e-001 -1.313038e+002 -3.347411e+001  1.653905e+002  2.549493e+001  8.640747e+001 -9.006202e+000  1.297720e+002
5.4356875000e+009  6.879768e-001 -1.308486e+002 -3.327868e+001  1.681748e+002  2.556993e+001  8.594489e+001 -8.986876e+000  1.297078e+002
5.4358125000e+009  6.860769e-001 -1.310350e+002 -3.312284e+001  1.643145e+002  2.557741e+001  8.639842e+001 -8.893812e+000  1.303001e+002
5.4359375000e+009  6.048058e-001 -1.314743e+002 -3.288470e+001  1.655101e+002  2.546245e+001  8.561142e+001 -9.047116e+000  1.302776e+002
5.4360625000e+009  5.722302e-001 -1.318085e+002 -3.364446e+001  1.665901e+002  2.568380e+001  8.510610e+001 -8.791271e+000  1.291043e+002
5.4361875000e+009  5.824362e-001 -1.314153e+002 -3.312629e+001  1.647497e+002  2.543245e+001  8.481599e+001 -9.187617e+000  1.298667e+002
5.4363125000e+009  4.508937e-001 -1.322282e+002 -3.338822e+001  1.642077e+002  2.573643e+001  8.521001e+001 -8.776571e+000  1.305716e+002
5.4364375000e+009  4.351912e-001 -1.321647e+002 -3.402504e+001  1.678617e+002  2.561052e+001  8.494501e+001 -8.895601e+000  1.306375e+002
5.4365625000e+009  4.732875e-001 -1.321449e+002 -3.358359e+001  1.647229e+002  2.548796e+001  8.424329e+001 -9.088889e+000  1.309102e+002
5.4366875000e+009  3.861499e-001 -1.330137e+002 -3.434615e+001  1.617327e+002  2.566737e+001  8.474060e+001 -8.825457e+000  1.313901e+002
5.4368125000e+009  3.641086e-001 -1.327328e+002 -3.406211e+001  1.670261e+002  2.564557e+001  8.385703e+001 -8.868038e+000  1.307303e+002
5.4369375000e+009  2.888822e-001 -1.330919e+002 -3.398523e+001  1.638768e+002  2.554059e+001  8.354665e+001 -9.059921e+000  1.308649e+002
5.4370625000e+009  2.416849e-001 -1.332749e+002 -3.380383e+001  1.686453e+002  2.574645e+001  8.331379e+001 -8.800181e+000  1.302275e+002
5.4371875000e+009  2.726150e-001 -1.333123e+002 -3.420230e+001  1.613876e+002  2.565121e+001  8.353870e+001 -8.836175e+000  1.315373e+002
5.4373125000e+009  2.457031e-001 -1.331936e+002 -3.363944e+001  1.614587e+002  2.550116e+001  8.306680e+001 -9.003897e+000  1.318986e+002
5.4374375000e+009  1.831887e-001 -1.338390e+002 -3.398624e+001  1.613576e+002  2.550255e+001  8.181971e+001 -9.133579e+000  1.306358e+002
5.4375625000e+009  9.574589e-002 -1.337096e+002 -3.397153e+001  1.675229e+002  2.569520e+001  8.243147e+001 -8.749090e+000  1.309307e+002
5.4376875000e+009  1.441422e-001 -1.338492e+002 -3.335685e+001  1.606609e+002  2.544137e+001  8.104990e+001 -9.255870e+000  1.308498e+002
5.4378125000e+009  5.200827e-002 -1.341269e+002 -3.364135e+001  1.651334e+002  2.575055e+001  8.293562e+001 -8.647305e+000  1.324969e+002
5.4379375000e+009  5.453949e-002 -1.344402e+002 -3.353651e+001  1.632900e+002  2.584882e+001  8.254168e+001 -8.572693e+000  1.319424e+002
5.4380625000e+009  2.837260e-002 -1.347209e+002 -3.382488e+001  1.653694e+002  2.549549e+001  8.184766e+001 -9.050468e+000  1.326737e+002
5.4381875000e+009 -2.172805e-002 -1.350493e+002 -3.334512e+001  1.650498e+002  2.567516e+001  8.069859e+001 -8.945566e+000  1.308090e+002
5.4383125000e+009 -1.387401e-002 -1.355936e+002 -3.377063e+001  1.648186e+002  2.545235e+001  8.060188e+001 -9.233423e+000  1.320841e+002
5.4384375000e+009  1.345838e-002 -1.356862e+002 -3.378410e+001  1.564609e+002  2.549569e+001  8.038161e+001 -9.112621e+000  1.328940e+002
5.4385625000e+009 -7.561548e-002 -1.358450e+002 -3.325551e+001  1.630944e+002  2.569940e+001  8.042311e+001 -8.913859e+000  1.316476e+002
5.4386875000e+009 -1.058510e-001 -1.362002e+002 -3.398882e+001  1.564432e+002  2.569017e+001  7.968011e+001 -8.963194e+000  1.316753e+002
5.4388125000e+009 -6.415077e-002 -1.363296e+002 -3.311577e+001  1.619563e+002  2.543428e+001  7.931017e+001 -9.366727e+000  1.321361e+002
5.4389375000e+009 -1.466946e-001 -1.368836e+002 -3.445364e+001  1.597359e+002  2.554248e+001  7.878007e+001 -9.157344e+000  1.313659e+002
5.4390625000e+009 -1.554039e-001 -1.371273e+002 -3.374792e+001  1.584231e+002  2.567477e+001  7.980656e+001 -8.948328e+000  1.329753e+002
5.4391875000e+009 -1.860755e-001 -1.370625e+002 -3.364419e+001  1.637505e+002  2.565903e+001  7.863437e+001 -9.029969e+000  1.310554e+002
5.4393125000e+009 -2.312182e-001 -1.375343e+002 -3.405435e+001  1.636046e+002  2.549452e+001  7.718349e+001 -9.415439e+000  1.300594e+002
5.4394375000e+009 -2.002120e-001 -1.380640e+002 -3.380548e+001  1.632560e+002  2.563667e+001  7.872491e+001 -9.055328e+000  1.323272e+002
5.4395625000e+009 -2.297709e-001 -1.384955e+002 -3.430795e+001  1.606241e+002  2.546600e+001  7.620453e+001 -9.536295e+000  1.291668e+002
5.4396875000e+009 -3.127867e-001 -1.384730e+002 -3.396488e+001  1.644423e+002  2.548763e+001  7.778407e+001 -9.233950e+000  1.323551e+002
5.4398125000e+009 -2.971213e-001 -1.383338e+002 -3.381562e+001  1.598624e+002  2.554456e+001  7.737380e+001 -9.257481e+000  1.321508e+002
5.4399375000e+009 -3.716894e-001 -1.388855e+002 -3.436531e+001  1.616147e+002  2.565034e+001  7.733752e+001 -8.966824e+000  1.319077e+002
5.4400625000e+009 -4.285562e-001 -1.390743e+002 -3.459323e+001  1.618903e+002  2.545240e+001  7.637856e+001 -9.411783e+000  1.316625e+002
5.4401875000e+009 -3.857666e-001 -1.392955e+002 -3.375702e+001  1.625821e+002  2.560967e+001  7.647337e+001 -9.190120e+000  1.314272e+002
5.4403125000e+009 -3.153549e-001 -1.400982e+002 -3.332234e+001  1.544349e+002  2.542575e+001  7.479737e+001 -9.594724e+000  1.303956e+002
5.4404375000e+009 -4.478174e-001 -1.400635e+002 -3.389715e+001  1.537152e+002  2.556735e+001  7.578577e+001 -9.171236e+000  1.317445e+002
5.4405625000e+009 -4.500432e-001 -1.401351e+002 -3.443366e+001  1.592703e+002  2.545010e+001  7.504601e+001 -9.399279e+000  1.310797e+002
5.4406875000e+009 -5.015830e-001 -1.403927e+002 -3.448408e+001  1.582265e+002  2.546058e+001  7.476337e+001 -9.462131e+000  1.307272e+002
5.4408125000e+009 -5.206685e-001 -1.403374e+002 -3.343449e+001  1.618124e+002  2.548734e+001  7.492609e+001 -9.353616e+000  1.313176e+002
5.4409375000e+009 -5.635155e-001 -1.408605e+002 -3.430336e+001  1.599394e+002  2.544406e+001  7.561147e+001 -9.350904e+000  1.336254e+002
5.4410625000e+009 -4.945063e-001 -1.414855e+002 -3.400363e+001  1.597955e+002  2.537233e+001  7.381759e+001 -9.639988e+000  1.313447e+002
5.4411875000e+009 -5.782620e-001 -1.416908e+002 -3.442489e+001  1.599670e+002  2.540468e+001  7.288299e+001 -9.592636e+000  1.294360e+002
5.4413125000e+009 -5.756841e-001 -1.418229e+002 -3.411553e+001  1.616766e+002  2.546818e+001  7.394486e+001 -9.375292e+000  1.312704e+002
5.4414375000e+009 -5.563717e-001 -1.426495e+002 -3.390679e+001  1.572177e+002  2.539737e+001  7.233930e+001 -9.740414e+000  1.295294e+002
5.4415625000e+009 -6.912525e-001 -1.427559e+002 -3.437345e+001  1.574575e+002  2.534239e+001  7.224662e+001 -9.653403e+000  1.300562e+002
5.4416875000e+009 -6.377104e-001 -1.424187e+002 -3.388094e+001  1.596706e+002  2.537214e+001  7.342299e+001 -9.503188e+000  1.324939e+002
5.4418125000e+009 -6.016210e-001 -1.429590e+002 -3.430851e+001  1.583396e+002  2.533769e+001  7.134195e+001 -9.891729e+000  1.288790e+002
5.4419375000e+009 -7.894263e-001 -1.428162e+002 -3.395422e+001  1.581622e+002  2.536149e+001  7.146785e+001 -9.755356e+000  1.297797e+002
5.4420625000e+009 -6.982527e-001 -1.433763e+002 -3.399796e+001  1.579725e+002  2.540497e+001  7.206700e+001 -9.380051e+000  1.312771e+002
5.4421875000e+009 -7.777761e-001 -1.435624e+002 -3.400092e+001  1.582219e+002  2.528519e+001  7.130708e+001 -9.797982e+000  1.313270e+002
5.4423125000e+009 -7.273284e-001 -1.438117e+002 -3.373529e+001  1.555005e+002  2.529689e+001  7.052689e+001 -9.866596e+000  1.298888e+002
5.4424375000e+009 -7.944490e-001 -1.439940e+002 -3.467225e+001  1.629328e+002  2.531262e+001  7.146772e+001 -9.517855e+000  1.314752e+002
5.4425625000e+009 -7.516031e-001 -1.448195e+002 -3.386926e+001  1.559900e+002  2.531659e+001  6.961948e+001 -9.833715e+000  1.286393e+002
5.4426875000e+009 -9.043153e-001 -1.446737e+002 -3.412040e+001  1.538088e+002  2.525695e+001  7.063968e+001 -9.785157e+000  1.317318e+002
5.4428125000e+009 -8.501409e-001 -1.445055e+002 -3.427700e+001  1.563032e+002  2.523457e+001  7.042903e+001 -9.793765e+000  1.317360e+002
5.4429375000e+009 -8.649400e-001 -1.452078e+002 -3.384763e+001  1.580247e+002  2.524250e+001  6.889719e+001 -9.967448e+000  1.286210e+002
5.4430625000e+009 -1.002086e+000 -1.451306e+002 -3.434779e+001  1.511371e+002  2.520914e+001  6.940118e+001 -9.813984e+000  1.310203e+002
5.4431875000e+009 -9.432088e-001 -1.456997e+002 -3.407283e+001  1.595798e+002  2.521643e+001  6.966248e+001 -9.907146e+000  1.309205e+002
5.4433125000e+009 -8.644871e-001 -1.461413e+002 -3.376089e+001  1.511019e+002  2.528058e+001  6.789691e+001 -9.870202e+000  1.278364e+002
5.4434375000e+009 -1.038711e+000 -1.461461e+002 -3.414979e+001  1.512013e+002  2.516840e+001  6.825977e+001 -1.000379e+001  1.297784e+002
5.4435625000e+009 -1.078857e+000 -1.458168e+002 -3.459793e+001  1.570173e+002  2.517302e+001  6.885130e+001 -9.849086e+000  1.316105e+002
5.4436875000e+009 -9.609559e-001 -1.464687e+002 -3.400199e+001  1.554931e+002  2.518326e+001  6.762746e+001 -9.920813e+000  1.293434e+002
5.4438125000e+009 -1.122218e+000 -1.464124e+002 -3.385520e+001  1.541347e+002  2.516039e+001  6.725858e+001 -1.008240e+001  1.281093e+002
5.4439375000e+009 -1.217605e+000 -1.466001e+002 -3.520844e+001  1.527680e+002  2.515298e+001  6.719601e+001 -9.966274e+000  1.288741e+002
5.4440625000e+009 -1.102045e+000 -1.474560e+002 -3.425390e+001  1.537828e+002  2.516772e+001  6.643475e+001 -1.006596e+001  1.278108e+002
5.4441875000e+009 -1.054853e+000 -1.469691e+002 -3.410758e+001  1.527868e+002  2.521527e+001  6.576268e+001 -9.769872e+000  1.267496e+002
5.4443125000e+009 -1.225708e+000 -1.479963e+002 -3.418637e+001  1.506071e+002  2.510061e+001  6.687893e+001 -9.738012e+000  1.307184e+002
5.4444375000e+009 -1.091870e+000 -1.484039e+002 -3.444792e+001  1.540577e+002  2.512853e+001  6.566233e+001 -9.929428e+000  1.280836e+002
5.4445625000e+009 -1.215319e+000 -1.479443e+002 -3.367088e+001  1.563722e+002  2.510363e+001  6.568128e+001 -1.020176e+001  1.280105e+002
5.4446875000e+009 -1.234510e+000 -1.479909e+002 -3.393277e+001  1.541342e+002  2.510965e+001  6.586118e+001 -1.001126e+001  1.293838e+002
5.4448125000e+009 -1.160597e+000 -1.487149e+002 -3.425046e+001  1.560977e+002  2.508975e+001  6.495907e+001 -9.978173e+000  1.269045e+002
5.4449375000e+009 -1.377712e+000 -1.488102e+002 -3.389328e+001  1.500018e+002  2.504989e+001  6.484864e+001 -1.023371e+001  1.276361e+002
5.4450625000e+009 -1.314469e+000 -1.488589e+002 -3.364830e+001  1.518096e+002  2.504000e+001  6.429723e+001 -1.015609e+001  1.260136e+002
5.4451875000e+009 -1.158412e+000 -1.491858e+002 -3.386701e+001  1.526954e+002  2.505256e+001  6.355851e+001 -1.013032e+001  1.258535e+002
5.4453125000e+009 -1.281746e+000 -1.493284e+002 -3.414340e+001  1.524964e+002  2.503959e+001  6.398879e+001 -9.977147e+000  1.282513e+002
5.4454375000e+009 -1.269308e+000 -1.499639e+002 -3.386580e+001  1.513717e+002  2.503598e+001  6.351701e+001 -9.954908e+000  1.260053e+002
5.4455625000e+009 -1.318219e+000 -1.496203e+002 -3.414239e+001  1.547387e+002  2.502389e+001  6.304726e+001 -1.006243e+001  1.253328e+002
5.4456875000e+009 -1.427766e+000 -1.498807e+002 -3.371769e+001  1.534831e+002  2.494001e+001  6.333533e+001 -1.029022e+001  1.280053e+002
5.4458125000e+009 -1.538889e+000 -1.496814e+002 -3.455674e+001  1.629995e+002  2.496096e+001  6.301866e+001 -1.006042e+001  1.255905e+002
5.4459375000e+009 -1.541728e+000 -1.500753e+002 -3.436190e+001  1.556955e+002  2.488286e+001  6.297275e+001 -1.041208e+001  1.276121e+002
5.4460625000e+009 -1.477938e+000 -1.507844e+002 -3.411580e+001  1.526343e+002  2.496424e+001  6.162886e+001 -1.014256e+001  1.231812e+002
5.4461875000e+009 -1.386113e+000 -1.507250e+002 -3.391902e+001  1.510918e+002  2.488138e+001  6.272456e+001 -1.026997e+001  1.306859e+002
5.4463125000e+009 -1.477516e+000 -1.506936e+002 -3.468366e+001  1.548241e+002  2.490728e+001  6.121833e+001 -1.027851e+001  1.228912e+002
5.4464375000e+009 -1.513580e+000 -1.515593e+002 -3.411884e+001  1.543812e+002  2.489820e+001  6.124520e+001 -1.042726e+001  1.246917e+002
5.4465625000e+009 -1.573094e+000 -1.515961e+002 -3.405949e+001  1.500482e+002  2.485181e+001  6.116180e+001 -1.032638e+001  1.253262e+002
5.4466875000e+009 -1.564896e+000 -1.515433e+002 -3.456263e+001  1.523350e+002  2.493302e+001  6.066349e+001 -9.974193e+000  1.239659e+002
5.4468125000e+009 -1.522207e+000 -1.520648e+002 -3.459804e+001  1.512921e+002  2.484069e+001  6.047009e+001 -1.023846e+001  1.248682e+002
5.4469375000e+009 -1.584925e+000 -1.521709e+002 -3.385247e+001  1.509294e+002  2.485026e+001  6.033896e+001 -1.014207e+001  1.261351e+002
5.4470625000e+009 -1.487056e+000 -1.522401e+002 -3.352715e+001  1.515297e+002  2.480956e+001  5.989439e+001 -1.035604e+001  1.244258e+002
5.4471875000e+009 -1.584016e+000 -1.524372e+002 -3.454156e+001  1.470819e+002  2.481531e+001  5.949593e+001 -1.012823e+001  1.228182e+002
5.4473125000e+009 -1.715993e+000 -1.528645e+002 -3.390197e+001  1.512987e+002  2.484285e+001  5.904551e+001 -1.026318e+001  1.212149e+002
5.4474375000e+009 -1.638745e+000 -1.529539e+002 -3.464910e+001  1.521777e+002  2.478486e+001  5.907479e+001 -1.039322e+001  1.218076e+002
5.4475625000e+009 -1.711697e+000 -1.532615e+002 -3.466756e+001  1.486091e+002  2.476875e+001  5.889957e+001 -1.036199e+001  1.223307e+002
5.4476875000e+009 -1.667750e+000 -1.531433e+002 -3.371006e+001  1.545972e+002  2.476758e+001  5.862388e+001 -1.037452e+001  1.240115e+002
5.4478125000e+009 -1.620352e+000 -1.533360e+002 -3.348699e+001  1.516331e+002  2.476962e+001  5.769593e+001 -1.005641e+001  1.209632e+002
5.4479375000e+009 -1.692149e+000 -1.543368e+002 -3.372341e+001  1.461308e+002  2.474158e+001  5.761259e+001 -1.015076e+001  1.214012e+002
5.4480625000e+009 -1.759334e+000 -1.542259e+002 -3.399493e+001  1.507789e+002  2.468039e+001  5.773282e+001 -1.051994e+001  1.237460e+002
5.4481875000e+009 -1.728277e+000 -1.543098e+002 -3.383359e+001  1.508710e+002  2.469316e+001  5.729204e+001 -1.036096e+001  1.213833e+002
5.4483125000e+009 -1.895475e+000 -1.550581e+002 -3.422420e+001  1.510250e+002  2.472010e+001  5.714292e+001 -1.040211e+001  1.207955e+002
5.4484375000e+009 -1.770524e+000 -1.548747e+002 -3.451073e+001  1.482971e+002  2.466247e+001  5.685868e+001 -1.036334e+001  1.219266e+002
5.4485625000e+009 -1.795117e+000 -1.546619e+002 -3.396613e+001  1.456054e+002  2.469037e+001  5.608137e+001 -1.009739e+001  1.201951e+002
5.4486875000e+009 -1.886689e+000 -1.550199e+002 -3.479595e+001  1.542430e+002  2.468630e+001  5.602294e+001 -1.009728e+001  1.178698e+002
5.4488125000e+009 -1.848264e+000 -1.556497e+002 -3.364888e+001  1.499910e+002  2.465556e+001  5.593908e+001 -1.038215e+001  1.218868e+002
5.4489375000e+009 -1.900325e+000 -1.558826e+002 -3.460550e+001  1.469758e+002  2.464670e+001  5.560603e+001 -1.031573e+001  1.210710e+002
5.4490625000e+009 -2.001297e+000 -1.564386e+002 -3.439204e+001  1.432631e+002  2.462461e+001  5.542815e+001 -1.013385e+001  1.180349e+002
5.4491875000e+009 -1.946749e+000 -1.565606e+002 -3.440669e+001  1.447723e+002  2.461621e+001  5.550695e+001 -1.042507e+001  1.198960e+002
5.4493125000e+009 -1.885620e+000 -1.564008e+002 -3.449340e+001  1.517755e+002  2.465279e+001  5.511465e+001 -1.036867e+001  1.186752e+002
5.4494375000e+009 -1.979645e+000 -1.572694e+002 -3.371314e+001  1.441249e+002  2.455190e+001  5.427162e+001 -1.019671e+001  1.177203e+002
5.4495625000e+009 -1.991780e+000 -1.566640e+002 -3.503696e+001  1.479154e+002  2.461124e+001  5.420175e+001 -1.024224e+001  1.174939e+002
5.4496875000e+009 -1.941780e+000 -1.572323e+002 -3.377688e+001  1.468676e+002  2.451241e+001  5.395199e+001 -1.020329e+001  1.170542e+002
5.4498125000e+009 -2.013032e+000 -1.577654e+002 -3.375771e+001  1.444364e+002  2.457394e+001  5.341967e+001 -1.000593e+001  1.183691e+002
5.4499375000e+009 -2.067123e+000 -1.578542e+002 -3.421791e+001  1.485214e+002  2.453500e+001  5.339845e+001 -1.021461e+001  1.161791e+002
5.4500625000e+009 -2.019351e+000 -1.576138e+002 -3.485442e+001  1.524354e+002  2.455182e+001  5.276765e+001 -1.018622e+001  1.159549e+002
5.4501875000e+009 -2.094699e+000 -1.585666e+002 -3.439423e+001  1.431163e+002  2.449369e+001  5.237008e+001 -9.917576e+000  1.152327e+002
5.4503125000e+009 -2.048971e+000 -1.585367e+002 -3.383629e+001  1.452919e+002  2.454850e+001  5.256735e+001 -1.023258e+001  1.172810e+002
5.4504375000e+009 -2.088637e+000 -1.584561e+002 -3.380364e+001  1.454849e+002  2.439565e+001  5.206721e+001 -1.014664e+001  1.149430e+002
5.4505625000e+009 -2.057036e+000 -1.584909e+002 -3.343389e+001  1.504024e+002  2.443643e+001  5.188715e+001 -1.012686e+001  1.146906e+002
5.4506875000e+009 -2.126414e+000 -1.586501e+002 -3.426994e+001  1.430674e+002  2.448574e+001  5.194699e+001 -1.021920e+001  1.163611e+002
5.4508125000e+009 -2.098187e+000 -1.589951e+002 -3.362700e+001  1.487736e+002  2.446840e+001  5.150861e+001 -1.026226e+001  1.150316e+002
5.4509375000e+009 -2.131027e+000 -1.590077e+002 -3.385472e+001  1.454005e+002  2.443227e+001  5.118327e+001 -1.001219e+001  1.141813e+002
5.4510625000e+009 -2.164239e+000 -1.590443e+002 -3.401801e+001  1.444801e+002  2.442175e+001  5.139677e+001 -1.010594e+001  1.140499e+002
5.4511875000e+009 -2.145473e+000 -1.592412e+002 -3.411703e+001  1.411133e+002  2.437596e+001  5.025893e+001 -9.820166e+000  1.138460e+002
5.4513125000e+009 -2.201381e+000 -1.593035e+002 -3.459736e+001  1.436786e+002  2.434812e+001  5.031515e+001 -9.839008e+000  1.126990e+002
5.4514375000e+009 -2.145059e+000 -1.592996e+002 -3.416117e+001  1.467205e+002  2.444514e+001  5.091693e+001 -1.030557e+001  1.141017e+002
5.4515625000e+009 -2.145206e+000 -1.594965e+002 -3.404795e+001  1.479052e+002  2.431769e+001  4.978690e+001 -9.931376e+000  1.118449e+002
5.4516875000e+009 -2.240684e+000 -1.595854e+002 -3.473741e+001  1.458179e+002  2.443198e+001  4.959269e+001 -9.938289e+000  1.125315e+002
5.4518125000e+009 -2.220901e+000 -1.598516e+002 -3.427891e+001  1.414853e+002  2.441623e+001  4.987383e+001 -1.014529e+001  1.135419e+002
5.4519375000e+009 -2.172904e+000 -1.596829e+002 -3.444964e+001  1.505786e+002  2.430288e+001  4.884127e+001 -1.002968e+001  1.111289e+002
5.4520625000e+009 -2.240785e+000 -1.601458e+002 -3.459060e+001  1.451615e+002  2.433115e+001  4.921655e+001 -9.942107e+000  1.110885e+002
5.4521875000e+009 -2.265987e+000 -1.602257e+002 -3.372279e+001  1.461216e+002  2.434018e+001  4.913279e+001 -1.019086e+001  1.119769e+002
5.4523125000e+009 -2.220928e+000 -1.603950e+002 -3.365060e+001  1.458654e+002  2.430937e+001  4.861189e+001 -1.015874e+001  1.113967e+002
5.4524375000e+009 -2.259673e+000 -1.603782e+002 -3.347327e+001  1.450721e+002  2.429022e+001  4.827381e+001 -1.007525e+001  1.110707e+002
5.4525625000e+009 -2.249994e+000 -1.605904e+002 -3.394352e+001  1.429891e+002  2.428491e+001  4.827350e+001 -1.000057e+001  1.104647e+002
5.4526875000e+009 -2.292720e+000 -1.603912e+002 -3.486183e+001  1.409779e+002  2.432082e+001  4.827189e+001 -1.008316e+001  1.099131e+002
5.4528125000e+009 -2.303828e+000 -1.607779e+002 -3.369434e+001  1.438403e+002  2.423340e+001  4.727296e+001 -9.854557e+000  1.097703e+002
5.4529375000e+009 -2.309898e+000 -1.607126e+002 -3.418710e+001  1.460006e+002  2.428205e+001  4.781445e+001 -1.014429e+001  1.098377e+002
5.4530625000e+009 -2.344900e+000 -1.609614e+002 -3.377592e+001  1.388845e+002  2.434107e+001  4.776863e+001 -1.011572e+001  1.101239e+002
5.4531875000e+009 -2.365078e+000 -1.610537e+002 -3.402863e+001  1.465972e+002  2.429550e+001  4.700078e+001 -9.991502e+000  1.086432e+002
5.4533125000e+009 -2.354785e+000 -1.613553e+002 -3.398698e+001  1.423495e+002  2.427157e+001  4.695170e+001 -1.005283e+001  1.088249e+002
5.4534375000e+009 -2.386526e+000 -1.613459e+002 -3.466904e+001  1.458726e+002  2.421092e+001  4.628728e+001 -9.842646e+000  1.075771e+002
5.4535625000e+009 -2.417465e+000 -1.613014e+002 -3.454621e+001  1.479076e+002  2.416703e+001  4.578847e+001 -9.787926e+000  1.065582e+002
5.4536875000e+009 -2.359505e+000 -1.617793e+002 -3.370885e+001  1.417273e+002  2.416327e+001  4.654877e+001 -9.954580e+000  1.077691e+002
5.4538125000e+009 -2.342476e+000 -1.617980e+002 -3.398254e+001  1.415110e+002  2.428254e+001  4.677037e+001 -9.984806e+000  1.075254e+002
5.4539375000e+009 -2.412331e+000 -1.614926e+002 -3.412098e+001  1.488921e+002  2.409431e+001  4.455865e+001 -9.778815e+000  1.056001e+002
5.4540625000e+009 -2.455048e+000 -1.614517e+002 -3.405294e+001  1.442301e+002  2.413744e+001  4.553930e+001 -9.902288e+000  1.065515e+002
5.4541875000e+009 -2.327852e+000 -1.622446e+002 -3.433526e+001  1.437341e+002  2.414957e+001  4.480332e+001 -9.757874e+000  1.056239e+002
5.4543125000e+009 -2.499460e+000 -1.622690e+002 -3.463766e+001  1.382588e+002  2.413899e+001  4.478893e+001 -9.747951e+000  1.054897e+002
5.4544375000e+009 -2.488665e+000 -1.624185e+002 -3.384541e+001  1.436681e+002  2.408896e+001  4.473108e+001 -9.838447e+000  1.055495e+002
5.4545625000e+009 -2.397618e+000 -1.627647e+002 -3.343753e+001  1.410199e+002  2.414123e+001  4.432989e+001 -9.728016e+000  1.055465e+002
5.4546875000e+009 -2.504618e+000 -1.626044e+002 -3.411288e+001  1.365627e+002  2.410932e+001  4.384874e+001 -9.601797e+000  1.051715e+002
5.4548125000e+009 -2.470053e+000 -1.621575e+002 -3.436487e+001  1.422699e+002  2.410767e+001  4.417640e+001 -9.779805e+000  1.041777e+002
5.4549375000e+009 -2.431613e+000 -1.633644e+002 -3.415609e+001  1.364510e+002  2.405028e+001  4.308873e+001 -9.518765e+000  1.038816e+002
5.4550625000e+009 -2.470639e+000 -1.633879e+002 -3.386858e+001  1.413926e+002  2.405739e+001  4.336735e+001 -9.639795e+000  1.036729e+002
5.4551875000e+009 -2.567423e+000 -1.622527e+002 -3.457282e+001  1.406759e+002  2.414844e+001  4.385683e+001 -9.641642e+000  1.031095e+002
5.4553125000e+009 -2.601461e+000 -1.628952e+002 -3.414721e+001  1.359052e+002  2.404731e+001  4.358807e+001 -9.643962e+000  1.029364e+002
5.4554375000e+009 -2.621635e+000 -1.632414e+002 -3.458806e+001  1.415160e+002  2.412203e+001  4.228582e+001 -9.487847e+000  1.022369e+002
5.4555625000e+009 -2.554218e+000 -1.631483e+002 -3.384662e+001  1.414147e+002  2.403604e+001  4.276567e+001 -9.646496e+000  1.021965e+002
5.4556875000e+009 -2.589654e+000 -1.642077e+002 -3.453721e+001  1.361060e+002  2.410254e+001  4.243513e+001 -9.444314e+000  1.016934e+002
5.4558125000e+009 -2.617482e+000 -1.637641e+002 -3.345898e+001  1.439399e+002  2.399958e+001  4.120303e+001 -9.625051e+000  1.019417e+002
5.4559375000e+009 -2.562108e+000 -1.642266e+002 -3.388340e+001  1.420929e+002  2.399949e+001  4.190728e+001 -9.638237e+000  1.013213e+002
5.4560625000e+009 -2.532867e+000 -1.641887e+002 -3.423578e+001  1.350789e+002  2.395764e+001  4.267566e+001 -9.534982e+000  1.013963e+002
5.4561875000e+009 -2.635297e+000 -1.635427e+002 -3.402024e+001  1.393310e+002  2.404466e+001  4.082242e+001 -9.445699e+000  1.006562e+002
5.4563125000e+009 -2.671283e+000 -1.638943e+002 -3.419120e+001  1.426463e+002  2.397120e+001  4.099867e+001 -9.502080e+000  9.997319e+001
5.4564375000e+009 -2.615493e+000 -1.645622e+002 -3.419250e+001  1.399146e+002  2.403498e+001  4.081926e+001 -9.367498e+000  1.002466e+002
5.4565625000e+009 -2.568959e+000 -1.644842e+002 -3.455317e+001  1.435577e+002  2.396220e+001  4.000570e+001 -9.378776e+000  9.908160e+001
5.4566875000e+009 -2.668385e+000 -1.648519e+002 -3.378061e+001  1.373894e+002  2.397225e+001  4.070172e+001 -9.391897e+000  9.983233e+001
5.4568125000e+009 -2.579500e+000 -1.652718e+002 -3.366614e+001  1.452197e+002  2.387199e+001  3.974974e+001 -9.487423e+000  9.938298e+001
5.4569375000e+009 -2.769696e+000 -1.650504e+002 -3.400114e+001  1.366510e+002  2.395181e+001  3.991055e+001 -9.203192e+000  9.903919e+001
5.4570625000e+009 -2.750157e+000 -1.652497e+002 -3.373266e+001  1.393359e+002  2.387372e+001  3.990454e+001 -9.339617e+000  9.819450e+001
5.4571875000e+009 -2.774912e+000 -1.652310e+002 -3.387481e+001  1.383175e+002  2.394226e+001  3.994023e+001 -9.215913e+000  9.846529e+001
5.4573125000e+009 -2.674080e+000 -1.658675e+002 -3.389355e+001  1.415200e+002  2.391190e+001  3.890765e+001 -9.236730e+000  9.755063e+001
5.4574375000e+009 -2.826242e+000 -1.655100e+002 -3.429991e+001  1.402127e+002  2.388918e+001  3.954906e+001 -9.296429e+000  9.728450e+001
5.4575625000e+009 -2.680742e+000 -1.659166e+002 -3.393163e+001  1.364067e+002  2.385721e+001  3.881995e+001 -9.174077e+000  9.769610e+001
5.4576875000e+009 -2.763378e+000 -1.662352e+002 -3.368032e+001  1.383431e+002  2.393337e+001  3.732709e+001 -9.105139e+000  9.647097e+001
5.4578125000e+009 -3.026040e+000 -1.656818e+002 -3.399100e+001  1.355951e+002  2.388126e+001  3.821334e+001 -9.073961e+000  9.635703e+001
5.4579375000e+009 -2.662719e+000 -1.667584e+002 -3.372278e+001  1.457413e+002  2.384538e+001  3.837803e+001 -9.224111e+000  9.569747e+001
5.4580625000e+009 -2.640090e+000 -1.670748e+002 -3.378084e+001  1.344325e+002  2.385527e+001  3.687645e+001 -8.888323e+000  9.500254e+001
5.4581875000e+009 -2.901495e+000 -1.656954e+002 -3.395538e+001  1.383110e+002  2.386069e+001  3.765676e+001 -9.018344e+000  9.582878e+001
5.4583125000e+009 -2.781563e+000 -1.662662e+002 -3.406373e+001  1.401609e+002  2.382402e+001  3.724122e+001 -8.990171e+000  9.510387e+001
5.4584375000e+009 -2.820037e+000 -1.667156e+002 -3.401296e+001  1.314243e+002  2.376340e+001  3.642927e+001 -8.791196e+000  9.477473e+001
5.4585625000e+009 -2.950204e+000 -1.670493e+002 -3.392368e+001  1.308092e+002  2.379813e+001  3.661532e+001 -8.775874e+000  9.492035e+001
5.4586875000e+009 -2.985112e+000 -1.661885e+002 -3.470523e+001  1.358462e+002  2.379383e+001  3.642752e+001 -8.819320e+000  9.361942e+001
5.4588125000e+009 -2.849598e+000 -1.671147e+002 -3.415852e+001  1.376519e+002  2.379733e+001  3.535426e+001 -8.798619e+000  9.304958e+001
5.4589375000e+009 -2.904596e+000 -1.664669e+002 -3.410812e+001  1.357554e+002  2.374907e+001  3.577059e+001 -8.803484e+000  9.328439e+001
5.4590625000e+009 -2.874376e+000 -1.677870e+002 -3.390640e+001  1.325398e+002  2.375156e+001  3.554019e+001 -8.650683e+000  9.325329e+001
5.4591875000e+009 -2.878758e+000 -1.672650e+002 -3.319436e+001  1.364072e+002  2.371792e+001  3.505236e+001 -8.832483e+000  9.299023e+001
5.4593125000e+009 -2.958108e+000 -1.675635e+002 -3.422517e+001  1.361422e+002  2.372036e+001  3.576722e+001 -8.618889e+000  9.295155e+001
5.4594375000e+009 -3.126122e+000 -1.673638e+002 -3.454609e+001  1.278670e+002  2.374626e+001  3.493729e+001 -8.453978e+000  9.121175e+001
5.4595625000e+009 -2.982885e+000 -1.674733e+002 -3.385210e+001  1.357004e+002  2.373374e+001  3.414850e+001 -8.597121e+000  9.138123e+001
5.4596875000e+009 -3.202631e+000 -1.672819e+002 -3.353394e+001  1.307373e+002  2.369003e+001  3.488539e+001 -8.513821e+000  9.268754e+001
5.4598125000e+009 -2.985458e+000 -1.684921e+002 -3.403056e+001  1.334050e+002  2.366124e+001  3.447488e+001 -8.541070e+000  9.161141e+001
5.4599375000e+009 -3.165290e+000 -1.681267e+002 -3.426304e+001  1.332562e+002  2.373191e+001  3.396350e+001 -8.373671e+000  9.067744e+001
5.4600625000e+009 -3.193374e+000 -1.689934e+002 -3.382907e+001  1.308140e+002  2.366846e+001  3.356723e+001 -8.509379e+000  9.037066e+001
5.4601875000e+009 -3.058770e+000 -1.696250e+002 -3.451875e+001  1.292625e+002  2.362937e+001  3.375680e+001 -8.240193e+000  9.025777e+001
5.4603125000e+009 -3.224031e+000 -1.687230e+002 -3.421574e+001  1.287504e+002  2.364703e+001  3.299048e+001 -8.289114e+000  8.971043e+001
5.4604375000e+009 -3.129972e+000 -1.691664e+002 -3.436335e+001  1.315706e+002  2.362230e+001  3.311924e+001 -8.196607e+000  8.974649e+001
5.4605625000e+009 -3.051916e+000 -1.685753e+002 -3.372411e+001  1.303031e+002  2.359571e+001  3.292537e+001 -8.264972e+000  8.963889e+001
5.4606875000e+009 -3.044597e+000 -1.687542e+002 -3.401517e+001  1.326124e+002  2.364251e+001  3.191988e+001 -8.190844e+000  8.782773e+001
5.4608125000e+009 -3.051736e+000 -1.699236e+002 -3.380611e+001  1.398586e+002  2.356285e+001  3.270160e+001 -8.372059e+000  8.957167e+001
5.4609375000e+009 -3.192981e+000 -1.695783e+002 -3.429657e+001  1.265346e+002  2.356543e+001  3.285345e+001 -8.039746e+000  8.975831e+001
5.4610625000e+009 -3.148683e+000 -1.693851e+002 -3.427557e+001  1.319069e+002  2.358696e+001  3.122953e+001 -8.101691e+000  8.708133e+001
5.4611875000e+009 -3.212120e+000 -1.698801e+002 -3.389513e+001  1.318743e+002  2.355875e+001  3.181941e+001 -8.057845e+000  8.872144e+001
5.4613125000e+009 -3.021877e+000 -1.708035e+002 -3.294327e+001  1.353917e+002  2.352058e+001  3.156689e+001 -8.185974e+000  8.844808e+001
5.4614375000e+009 -3.060513e+000 -1.696635e+002 -3.409400e+001  1.301409e+002  2.357705e+001  3.084815e+001 -7.895332e+000  8.682618e+001
5.4615625000e+009 -3.210467e+000 -1.701711e+002 -3.404407e+001  1.282076e+002  2.352768e+001  3.126980e+001 -7.847566e+000  8.801226e+001
5.4616875000e+009 -2.895354e+000 -1.697110e+002 -3.376092e+001  1.269083e+002  2.354066e+001  3.031757e+001 -7.572206e+000  8.671442e+001
5.4618125000e+009 -3.115647e+000 -1.699495e+002 -3.394173e+001  1.292863e+002  2.354352e+001  3.044953e+001 -7.878674e+000  8.680860e+001
5.4619375000e+009 -3.514213e+000 -1.700856e+002 -3.415755e+001  1.285957e+002  2.354930e+001  3.053147e+001 -7.809900e+000  8.584140e+001
5.4620625000e+009 -3.016868e+000 -1.703070e+002 -3.379770e+001  1.314791e+002  2.344286e+001  3.034575e+001 -7.813160e+000  8.749740e+001
5.4621875000e+009 -3.172076e+000 -1.701164e+002 -3.359145e+001  1.283254e+002  2.347655e+001  2.956952e+001 -7.629469e+000  8.591883e+001
5.4623125000e+009 -3.412208e+000 -1.708530e+002 -3.397553e+001  1.340049e+002  2.343606e+001  2.982237e+001 -7.818976e+000  8.602605e+001
5.4624375000e+009 -3.396557e+000 -1.704910e+002 -3.374006e+001  1.251380e+002  2.344600e+001  2.967056e+001 -7.599232e+000  8.601865e+001
5.4625625000e+009 -3.231843e+000 -1.703520e+002 -3.408950e+001  1.326878e+002  2.342900e+001  2.910079e+001 -7.704653e+000  8.430997e+001
5.4626875000e+009 -3.496509e+000 -1.705915e+002 -3.425445e+001  1.274302e+002  2.348584e+001  2.935122e+001 -7.583292e+000  8.531165e+001
5.4628125000e+009 -3.113625e+000 -1.707147e+002 -3.325514e+001  1.275602e+002  2.340127e+001  2.874126e+001 -7.532607e+000  8.638423e+001
5.4629375000e+009 -3.353636e+000 -1.716989e+002 -3.347278e+001  1.289550e+002  2.344209e+001  2.848823e+001 -7.414274e+000  8.502316e+001
5.4630625000e+009 -3.373395e+000 -1.710796e+002 -3.379726e+001  1.294983e+002  2.342667e+001  2.839559e+001 -7.452926e+000  8.506718e+001
5.4631875000e+009 -3.459197e+000 -1.710352e+002 -3.360426e+001  1.284209e+002  2.337545e+001  2.792352e+001 -7.392733e+000  8.439468e+001
5.4633125000e+009 -3.168834e+000 -1.714549e+002 -3.413776e+001  1.311352e+002  2.340324e+001  2.781270e+001 -7.392343e+000  8.477576e+001
5.4634375000e+009 -3.666208e+000 -1.713126e+002 -3.412897e+001  1.247847e+002  2.341763e+001  2.764443e+001 -7.297715e+000  8.393476e+001
5.4635625000e+009 -3.454292e+000 -1.720698e+002 -3.342989e+001  1.292329e+002  2.340562e+001  2.756516e+001 -7.290224e+000  8.582987e+001
5.4636875000e+009 -3.361511e+000 -1.723323e+002 -3.369855e+001  1.246015e+002  2.340584e+001  2.679339e+001 -6.972660e+000  8.375448e+001
5.4638125000e+009 -3.463420e+000 -1.715669e+002 -3.397891e+001  1.252626e+002  2.339616e+001  2.665933e+001 -7.058466e+000  8.407961e+001
5.4639375000e+009 -3.526433e+000 -1.721186e+002 -3.344171e+001  1.253021e+002  2.337107e+001  2.703743e+001 -7.267289e+000  8.611890e+001
5.4640625000e+009 -3.570634e+000 -1.724106e+002 -3.372815e+001  1.254005e+002  2.337818e+001  2.638010e+001 -6.900455e+000  8.257114e+001
5.4641875000e+009 -3.846701e+000 -1.722035e+002 -3.517762e+001  1.252193e+002  2.337096e+001  2.648352e+001 -7.086193e+000  8.325353e+001
5.4643125000e+009 -3.851878e+000 -1.718929e+002 -3.428064e+001  1.267361e+002  2.340358e+001  2.676160e+001 -7.253189e+000  8.471282e+001
5.4644375000e+009 -3.616511e+000 -1.722915e+002 -3.388057e+001  1.238524e+002  2.335268e+001  2.560899e+001 -6.816806e+000  8.308461e+001
5.4645625000e+009 -4.124819e+000 -1.731867e+002 -3.373604e+001  1.276814e+002  2.337860e+001  2.587380e+001 -6.977992e+000  8.373022e+001
5.4646875000e+009 -3.677823e+000 -1.726272e+002 -3.389161e+001  1.252721e+002  2.333432e+001  2.572512e+001 -7.083575e+000  8.407444e+001
5.4648125000e+009 -3.636219e+000 -1.730049e+002 -3.384543e+001  1.301680e+002  2.335616e+001  2.552627e+001 -7.097822e+000  8.421570e+001
5.4649375000e+009 -3.854245e+000 -1.731094e+002 -3.399807e+001  1.224556e+002  2.335789e+001  2.529933e+001 -6.904507e+000  8.396703e+001
5.4650625000e+009 -4.004536e+000 -1.736342e+002 -3.341364e+001  1.256430e+002  2.336470e+001  2.518456e+001 -6.866851e+000  8.387162e+001
5.4651875000e+009 -3.888633e+000 -1.726250e+002 -3.364378e+001  1.282151e+002  2.334117e+001  2.469709e+001 -6.974532e+000  8.434991e+001
5.4653125000e+009 -4.177433e+000 -1.750192e+002 -3.421827e+001  1.229068e+002  2.333709e+001  2.505511e+001 -6.836433e+000  8.286343e+001
5.4654375000e+009 -3.977078e+000 -1.747626e+002 -3.348874e+001  1.250799e+002  2.330013e+001  2.486246e+001 -6.886765e+000  8.382774e+001
5.4655625000e+009 -3.988109e+000 -1.741974e+002 -3.425670e+001  1.267357e+002  2.333759e+001  2.443823e+001 -6.768385e+000  8.335732e+001
5.4656875000e+009 -4.128068e+000 -1.740595e+002 -3.390873e+001  1.212902e+002  2.334307e+001  2.401204e+001 -6.659379e+000  8.318349e+001
5.4658125000e+009 -4.051133e+000 -1.739586e+002 -3.369786e+001  1.203224e+002  2.333885e+001  2.383794e+001 -6.693196e+000  8.397881e+001
5.4659375000e+009 -4.104257e+000 -1.746372e+002 -3.346401e+001  1.238249e+002  2.327395e+001  2.351694e+001 -6.654078e+000  8.352183e+001
5.4660625000e+009 -4.246320e+000 -1.755815e+002 -3.328399e+001  1.242642e+002  2.333245e+001  2.386424e+001 -6.693173e+000  8.373792e+001
5.4661875000e+009 -4.274497e+000 -1.754382e+002 -3.400852e+001  1.242482e+002  2.330893e+001  2.364708e+001 -6.718991e+000  8.314687e+001
5.4663125000e+009 -4.129951e+000 -1.745627e+002 -3.397654e+001  1.250267e+002  2.327945e+001  2.243078e+001 -6.400428e+000  8.251360e+001
5.4664375000e+009 -4.362991e+000 -1.758804e+002 -3.497110e+001  1.208341e+002  2.330271e+001  2.352574e+001 -6.715348e+000  8.219013e+001
5.4665625000e+009 -4.239761e+000 -1.750093e+002 -3.522968e+001  1.158338e+002  2.325336e+001  2.278485e+001 -6.479555e+000  8.148608e+001
5.4666875000e+009 -4.300732e+000 -1.752628e+002 -3.371490e+001  1.193744e+002  2.327363e+001  2.248733e+001 -6.408345e+000  8.247652e+001
5.4668125000e+009 -4.378078e+000 -1.756412e+002 -3.473708e+001  1.181622e+002  2.330718e+001  2.191157e+001 -6.207273e+000  8.214666e+001
5.4669375000e+009 -4.352412e+000 -1.758982e+002 -3.371573e+001  1.224248e+002  2.330605e+001  2.268937e+001 -6.571299e+000  8.296817e+001
5.4670625000e+009 -4.232231e+000 -1.753802e+002 -3.422474e+001  1.193697e+002  2.324903e+001  2.172842e+001 -6.278377e+000  8.192090e+001
5.4671875000e+009 -4.445473e+000 -1.766177e+002 -3.384428e+001  1.259930e+002  2.318759e+001  2.216502e+001 -6.491282e+000  8.131919e+001
5.4673125000e+009 -4.442834e+000 -1.758959e+002 -3.330886e+001  1.190309e+002  2.320525e+001  2.223259e+001 -6.490425e+000  8.230912e+001
5.4674375000e+009 -4.447050e+000 -1.760732e+002 -3.443038e+001  1.230059e+002  2.325978e+001  2.054246e+001 -6.091065e+000  8.194103e+001
5.4675625000e+009 -4.577829e+000 -1.772148e+002 -3.419311e+001  1.200345e+002  2.324539e+001  2.119465e+001 -6.190071e+000  8.196574e+001
5.4676875000e+009 -4.653407e+000 -1.767290e+002 -3.333037e+001  1.180209e+002  2.328490e+001  2.154403e+001 -6.264703e+000  8.270992e+001
5.4678125000e+009 -4.571426e+000 -1.765068e+002 -3.411095e+001  1.231804e+002  2.332148e+001  2.055386e+001 -6.189985e+000  8.277201e+001
5.4679375000e+009 -4.628739e+000 -1.772807e+002 -3.460689e+001  1.251123e+002  2.325254e+001  2.085629e+001 -6.311837e+000  8.191634e+001
5.4680625000e+009 -4.691273e+000 -1.774904e+002 -3.362416e+001  1.218414e+002  2.329011e+001  2.068946e+001 -6.227476e+000  8.303223e+001
5.4681875000e+009 -4.662792e+000 -1.774144e+002 -3.412866e+001  1.223710e+002  2.331305e+001  2.046154e+001 -6.226896e+000  8.236952e+001
5.4683125000e+009 -4.618301e+000 -1.769868e+002 -3.470673e+001  1.196790e+002  2.310983e+001  1.967263e+001 -5.925128e+000  8.016112e+001
5.4684375000e+009 -4.699226e+000 -1.772561e+002 -3.370966e+001  1.225266e+002  2.326913e+001  2.050470e+001 -6.271159e+000  8.243978e+001
5.4685625000e+009 -4.709214e+000 -1.773357e+002 -3.390688e+001  1.198398e+002  2.316273e+001  1.998698e+001 -6.096829e+000  8.106483e+001
5.4686875000e+009 -4.744519e+000 -1.778499e+002 -3.454535e+001  1.196569e+002  2.317091e+001  1.940429e+001 -5.983852e+000  8.076331e+001
5.4688125000e+009 -4.817698e+000 -1.785307e+002 -3.383686e+001  1.234184e+002  2.308364e+001  1.989989e+001 -6.145989e+000  8.032246e+001
5.4689375000e+009 -4.761814e+000 -1.769803e+002 -3.458345e+001  1.213909e+002  2.318658e+001  1.860275e+001 -5.894602e+000  8.082607e+001
5.4690625000e+009 -4.901915e+000 -1.780110e+002 -3.426968e+001  1.222496e+002  2.314334e+001  1.855067e+001 -5.859087e+000  8.086969e+001
5.4691875000e+009 -4.799990e+000 -1.782123e+002 -3.302118e+001  1.212265e+002  2.318587e+001  1.851103e+001 -5.823165e+000  8.206466e+001
5.4693125000e+009 -4.928077e+000 -1.775270e+002 -3.329176e+001  1.170069e+002  2.313890e+001  1.756116e+001 -5.547657e+000  8.150930e+001
5.4694375000e+009 -4.936416e+000 -1.782082e+002 -3.461431e+001  1.206422e+002  2.316230e+001  1.796214e+001 -5.761709e+000  8.087350e+001
5.4695625000e+009 -4.921536e+000 -1.782644e+002 -3.423692e+001  1.214276e+002  2.306380e+001  1.822612e+001 -5.858379e+000  8.026619e+001
5.4696875000e+009 -4.890501e+000 -1.775461e+002 -3.392435e+001  1.237271e+002  2.315674e+001  1.735962e+001 -5.766333e+000  8.133763e+001
5.4698125000e+009 -5.060301e+000 -1.784710e+002 -3.397078e+001  1.158743e+002  2.315179e+001  1.664336e+001 -5.441999e+000  8.103529e+001
5.4699375000e+009 -5.036058e+000 -1.784375e+002 -3.383185e+001  1.187912e+002  2.309636e+001  1.833272e+001 -5.909361e+000  8.051122e+001
5.4700625000e+009 -4.986232e+000 -1.779827e+002 -3.424022e+001  1.174401e+002  2.314684e+001  1.794895e+001 -5.826943e+000  8.059986e+001
5.4701875000e+009 -5.115588e+000 -1.782311e+002 -3.396842e+001  1.164075e+002  2.312012e+001  1.687189e+001 -5.598121e+000  8.059505e+001
5.4703125000e+009 -5.133036e+000 -1.782836e+002 -3.397268e+001  1.135529e+002  2.315256e+001  1.753701e+001 -5.690296e+000  8.066401e+001
5.4704375000e+009 -5.087546e+000 -1.780814e+002 -3.438953e+001  1.215139e+002  2.307711e+001  1.567040e+001 -5.450748e+000  8.061894e+001
5.4705625000e+009 -5.168299e+000 -1.784590e+002 -3.469814e+001  1.164582e+002  2.308197e+001  1.684240e+001 -5.676094e+000  7.970293e+001
5.4706875000e+009 -5.119848e+000 -1.788249e+002 -3.501052e+001  1.182729e+002  2.310753e+001  1.766755e+001 -5.873868e+000  7.987194e+001
5.4708125000e+009 -5.182928e+000 -1.785513e+002 -3.442449e+001  1.183352e+002  2.309479e+001  1.636984e+001 -5.636333e+000  8.038023e+001
5.4709375000e+009 -5.269008e+000 -1.791723e+002 -3.357256e+001  1.144013e+002  2.307309e+001  1.584215e+001 -5.403794e+000  8.042291e+001
5.4710625000e+009 -5.198784e+000 -1.788645e+002 -3.470480e+001  1.176555e+002  2.305716e+001  1.592615e+001 -5.559402e+000  7.971732e+001
5.4711875000e+009 -5.245354e+000 -1.790148e+002 -3.342856e+001  1.173193e+002  2.299591e+001  1.630224e+001 -5.538103e+000  8.022623e+001
5.4713125000e+009 -5.246292e+000 -1.793274e+002 -3.388516e+001  1.213066e+002  2.302728e+001  1.530069e+001 -5.472474e+000  8.035897e+001
5.4714375000e+009 -5.276266e+000 -1.791082e+002 -3.413934e+001  1.162412e+002  2.308361e+001  1.624474e+001 -5.583776e+000  8.017452e+001
5.4715625000e+009 -5.284294e+000 -1.790600e+002 -3.421859e+001  1.162556e+002  2.312279e+001  1.454953e+001 -5.316086e+000  8.070335e+001
5.4716875000e+009 -5.381562e+000 -1.798932e+002 -3.323800e+001  1.162284e+002  2.300091e+001  1.494340e+001 -5.298084e+000  8.043630e+001
5.4718125000e+009 -5.374946e+000 -1.794147e+002 -3.407606e+001  1.170690e+002  2.305200e+001  1.514125e+001 -5.438833e+000  8.025027e+001
5.4719375000e+009 -5.461815e+000 -1.793715e+002 -3.415804e+001  1.149586e+002  2.309773e+001  1.417815e+001 -5.254561e+000  8.028602e+001
5.4720625000e+009 -5.501999e+000 -1.795221e+002 -3.377008e+001  1.190761e+002  2.298940e+001  1.456130e+001 -5.360505e+000  7.985030e+001
5.4721875000e+009 -5.431484e+000 -1.799805e+002 -3.388175e+001  1.183715e+002  2.291257e+001  1.576807e+001 -5.569648e+000  7.918166e+001
5.4723125000e+009 -5.381733e+000 -1.793906e+002 -3.371312e+001  1.192520e+002  2.297162e+001  1.402431e+001 -5.325639e+000  8.011970e+001
5.4724375000e+009 -5.486382e+000 -1.796023e+002 -3.461650e+001  1.182414e+002  2.297088e+001  1.447398e+001 -5.430539e+000  7.941913e+001
5.4725625000e+009 -5.488574e+000 -1.791634e+002 -3.423915e+001  1.203358e+002  2.291372e+001  1.429462e+001 -5.429211e+000  7.921912e+001
5.4726875000e+009 -5.437093e+000  1.798689e+002 -3.378675e+001  1.147524e+002  2.295644e+001  1.348676e+001 -5.146707e+000  7.973486e+001
5.4728125000e+009 -5.617473e+000 -1.793505e+002 -3.346106e+001  1.110418e+002  2.297388e+001  1.339961e+001 -5.064164e+000  7.964820e+001
5.4729375000e+009 -5.579782e+000 -1.792028e+002 -3.447245e+001  1.131591e+002  2.300694e+001  1.292030e+001 -5.143073e+000  7.936955e+001
5.4730625000e+009 -5.459654e+000 -1.799329e+002 -3.364538e+001  1.167064e+002  2.288082e+001  1.298670e+001 -5.163241e+000  7.942389e+001
5.4731875000e+009 -5.677158e+000  1.797868e+002 -3.375074e+001  1.136604e+002  2.303534e+001  1.286839e+001 -5.124863e+000  8.028487e+001
5.4733125000e+009 -5.552533e+000 -1.799269e+002 -3.389227e+001  1.194987e+002  2.292481e+001  1.260581e+001 -5.164034e+000  7.973014e+001
5.4734375000e+009 -5.663809e+000  1.798448e+002 -3.404783e+001  1.144407e+002  2.295896e+001  1.298480e+001 -5.171650e+000  7.956897e+001
5.4735625000e+009 -5.831982e+000 -1.797744e+002 -3.384280e+001  1.116857e+002  2.297550e+001  1.233418e+001 -5.025365e+000  7.945287e+001
5.4736875000e+009 -5.684132e+000 -1.796877e+002 -3.385534e+001  1.134540e+002  2.298867e+001  1.229202e+001 -5.072638e+000  7.988554e+001
5.4738125000e+009 -5.795297e+000 -1.796042e+002 -3.370239e+001  1.141610e+002  2.292700e+001  1.178537e+001 -5.015448e+000  7.940468e+001
5.4739375000e+009 -5.774611e+000 -1.796755e+002 -3.520607e+001  1.133242e+002  2.293936e+001  1.185164e+001 -5.093786e+000  7.865212e+001
5.4740625000e+009 -5.926215e+000 -1.794382e+002 -3.411773e+001  1.200337e+002  2.284893e+001  1.242931e+001 -5.227549e+000  7.915129e+001
5.4741875000e+009 -5.729261e+000 -1.789640e+002 -3.410036e+001  1.131122e+002  2.292679e+001  1.192884e+001 -5.098038e+000  7.906750e+001
5.4743125000e+009 -5.846474e+000 -1.789682e+002 -3.393328e+001  1.155542e+002  2.286211e+001  1.166823e+001 -5.062085e+000  7.902789e+001
5.4744375000e+009 -5.931544e+000 -1.797551e+002 -3.312050e+001  1.089559e+002  2.287108e+001  1.160403e+001 -4.881352e+000  7.928104e+001
5.4745625000e+009 -5.855831e+000 -1.797383e+002 -3.389254e+001  1.158472e+002  2.281720e+001  1.176737e+001 -5.079836e+000  7.892974e+001
5.4746875000e+009 -5.882041e+000 -1.797605e+002 -3.442562e+001  1.151106e+002  2.305785e+001  1.027630e+001 -4.928461e+000  8.008257e+001
5.4748125000e+009 -5.790193e+000  1.795939e+002 -3.405254e+001  1.180279e+002  2.285501e+001  1.085824e+001 -5.018530e+000  7.939192e+001
5.4749375000e+009 -5.691443e+000 -1.796154e+002 -3.420480e+001  1.125736e+002  2.287299e+001  1.067962e+001 -4.920857e+000  7.915629e+001
5.4750625000e+009 -5.909657e+000  1.794351e+002 -3.355214e+001  1.143744e+002  2.290725e+001  1.072476e+001 -4.912035e+000  8.000987e+001
5.4751875000e+009 -6.020086e+000 -1.797302e+002 -3.340155e+001  1.132213e+002  2.283466e+001  1.078511e+001 -4.923856e+000  7.933612e+001
5.4753125000e+009 -5.912159e+000  1.797477e+002 -3.330992e+001  1.164882e+002  2.284922e+001  1.034998e+001 -4.908593e+000  7.982110e+001
5.4754375000e+009 -6.007562e+000  1.789714e+002 -3.326115e+001  1.126799e+002  2.290274e+001  1.002821e+001 -4.782897e+000  8.002309e+001
5.4755625000e+009 -6.061760e+000 -1.799100e+002 -3.346533e+001  1.107452e+002  2.282253e+001  1.005830e+001 -4.817776e+000  7.930402e+001
5.4756875000e+009 -5.929362e+000  1.794636e+002 -3.448743e+001  1.092766e+002  2.280259e+001  9.815491e+000 -4.872522e+000  7.853791e+001
5.4758125000e+009 -6.274485e+000  1.787618e+002 -3.377642e+001  1.134777e+002  2.281818e+001  1.009620e+001 -4.926911e+000  7.935197e+001
5.4759375000e+009 -6.507079e+000  1.789624e+002 -3.496221e+001  1.104261e+002  2.272294e+001  1.036461e+001 -5.010680e+000  7.798460e+001
5.4760625000e+009 -6.148687e+000  1.775919e+002 -3.381622e+001  1.125322e+002  2.273686e+001  9.882180e+000 -4.877144e+000  7.897632e+001
5.4761875000e+009 -6.145005e+000  1.797150e+002 -3.416512e+001  1.070343e+002  2.269023e+001  9.376773e+000 -4.828025e+000  7.843289e+001
5.4763125000e+009 -6.035532e+000  1.779880e+002 -3.408190e+001  1.133173e+002  2.267174e+001  9.746359e+000 -4.971459e+000  7.901572e+001
5.4764375000e+009 -6.011046e+000  1.785767e+002 -3.489677e+001  1.140255e+002  2.272193e+001  9.254799e+000 -4.997644e+000  7.901532e+001
5.4765625000e+009 -6.546806e+000  1.773006e+002 -3.423284e+001  1.107435e+002  2.281382e+001  9.207028e+000 -4.903316e+000  7.930365e+001
5.4766875000e+009 -6.428619e+000  1.762639e+002 -3.367065e+001  1.151537e+002  2.267169e+001  9.594328e+000 -4.964108e+000  7.965447e+001
5.4768125000e+009 -6.301026e+000  1.774589e+002 -3.361508e+001  1.143543e+002  2.266278e+001  8.729918e+000 -4.870007e+000  7.959538e+001
5.4769375000e+009 -6.750589e+000  1.769157e+002 -3.434303e+001  1.087266e+002  2.276792e+001  8.888160e+000 -4.882626e+000  7.911793e+001
5.4770625000e+009 -6.694908e+000  1.772864e+002 -3.468228e+001  1.104465e+002  2.260462e+001  8.769545e+000 -4.944904e+000  7.842344e+001
5.4771875000e+009 -6.285628e+000  1.782592e+002 -3.389799e+001  1.082667e+002  2.268423e+001  8.348528e+000 -4.825819e+000  7.964750e+001
5.4773125000e+009 -6.585626e+000  1.769432e+002 -3.474078e+001  1.054577e+002  2.266621e+001  8.389064e+000 -4.862644e+000  7.840948e+001
5.4774375000e+009 -6.633922e+000  1.755682e+002 -3.458793e+001  1.124339e+002  2.263278e+001  8.759211e+000 -5.021233e+000  7.910926e+001
5.4775625000e+009 -6.667807e+000  1.768781e+002 -3.412310e+001  1.109340e+002  2.258283e+001  8.235502e+000 -4.928955e+000  7.907659e+001
5.4776875000e+009 -6.767826e+000  1.766241e+002 -3.428481e+001  1.092914e+002  2.263229e+001  8.064339e+000 -4.919391e+000  7.894769e+001
5.4778125000e+009 -7.133305e+000  1.764417e+002 -3.382360e+001  1.105693e+002  2.258386e+001  8.151298e+000 -4.925977e+000  7.892683e+001
5.4779375000e+009 -6.653532e+000  1.749967e+002 -3.440509e+001  1.058870e+002  2.259670e+001  8.068258e+000 -4.923831e+000  7.872402e+001
5.4780625000e+009 -6.644138e+000  1.759229e+002 -3.385563e+001  1.072869e+002  2.256824e+001  7.642436e+000 -4.843266e+000  7.917766e+001
5.4781875000e+009 -7.028689e+000  1.743854e+002 -3.450952e+001  1.104306e+002  2.251793e+001  8.027643e+000 -5.010565e+000  7.862342e+001
5.4783125000e+009 -6.595366e+000  1.759793e+002 -3.368548e+001  1.080400e+002  2.248469e+001  7.462420e+000 -4.874293e+000  7.897681e+001
5.4784375000e+009 -7.076443e+000  1.733219e+002 -3.404740e+001  1.073948e+002  2.264231e+001  7.789102e+000 -4.898042e+000  7.970506e+001
5.4785625000e+009 -7.196452e+000  1.736412e+002 -3.359241e+001  1.072956e+002  2.260627e+001  7.678447e+000 -4.868157e+000  7.998030e+001
5.4786875000e+009 -6.928198e+000  1.756036e+002 -3.432571e+001  1.018933e+002  2.248409e+001  7.375539e+000 -4.898718e+000  7.824525e+001
5.4788125000e+009 -7.230371e+000  1.727817e+002 -3.431723e+001  1.092683e+002  2.255845e+001  7.206242e+000 -4.951349e+000  7.948262e+001
5.4789375000e+009 -7.174416e+000  1.734714e+002 -3.468562e+001  1.073487e+002  2.243471e+001  7.167958e+000 -5.003133e+000  7.840015e+001
5.4790625000e+009 -6.434640e+000  1.750008e+002 -3.456596e+001  1.045079e+002  2.237424e+001  6.901471e+000 -4.972962e+000  7.855491e+001
5.4791875000e+009 -7.020578e+000  1.729721e+002 -3.405938e+001  1.028940e+002  2.250582e+001  6.963530e+000 -4.870909e+000  7.907898e+001
5.4793125000e+009 -7.085051e+000  1.720485e+002 -3.351421e+001  1.063657e+002  2.236977e+001  6.895340e+000 -4.937631e+000  7.895232e+001
5.4794375000e+009 -6.793465e+000  1.751720e+002 -3.439457e+001  1.064561e+002  2.234880e+001  6.443387e+000 -5.013663e+000  7.880739e+001
5.4795625000e+009 -7.027520e+000  1.748260e+002 -3.375668e+001  1.030737e+002  2.237462e+001  6.453555e+000 -4.929024e+000  7.894556e+001
5.4796875000e+009 -7.385241e+000  1.714364e+002 -3.361257e+001  1.028144e+002  2.243571e+001  6.893476e+000 -4.886808e+000  7.893597e+001
5.4798125000e+009 -6.524864e+000  1.757964e+002 -3.475865e+001  1.105737e+002  2.225203e+001  5.919072e+000 -5.099493e+000  7.909215e+001
5.4799375000e+009 -7.101751e+000  1.730126e+002 -3.439797e+001  1.006618e+002  2.236982e+001  6.328044e+000 -4.993498e+000  7.857873e+001
5.4800625000e+009 -7.292438e+000  1.748306e+002 -3.371667e+001  1.047257e+002  2.234850e+001  5.919395e+000 -4.956715e+000  7.909216e+001
5.4801875000e+009 -7.113221e+000  1.735824e+002 -3.538766e+001  1.036207e+002  2.234671e+001  5.957752e+000 -5.109740e+000  7.826612e+001
5.4803125000e+009 -7.049441e+000  1.745795e+002 -3.390630e+001  1.091144e+002  2.232171e+001  5.679168e+000 -5.035032e+000  7.979942e+001
5.4804375000e+009 -7.376229e+000  1.719411e+002 -3.394882e+001  1.026041e+002  2.233241e+001  5.764385e+000 -5.016454e+000  7.888213e+001
5.4805625000e+009 -6.906068e+000  1.712097e+002 -3.453002e+001  1.084376e+002  2.224252e+001  5.905803e+000 -5.170364e+000  7.908606e+001
5.4806875000e+009 -7.255019e+000  1.702061e+002 -3.438269e+001  1.076778e+002  2.229475e+001  6.031645e+000 -5.134040e+000  7.938110e+001
5.4808125000e+009 -7.452130e+000  1.699365e+002 -3.365351e+001  1.009705e+002  2.229096e+001  5.952210e+000 -4.988945e+000  7.874838e+001
5.4809375000e+009 -7.504367e+000  1.730818e+002 -3.437968e+001  9.982059e+001  2.234010e+001  5.346408e+000 -5.029836e+000  7.858826e+001
5.4810625000e+009 -7.811719e+000  1.670314e+002 -3.501500e+001  1.012947e+002  2.235799e+001  5.771394e+000 -5.168735e+000  7.825895e+001
5.4811875000e+009 -7.700225e+000  1.689970e+002 -3.462322e+001  1.033033e+002  2.228818e+001  5.557632e+000 -5.178014e+000  7.868673e+001
5.4813125000e+009 -7.316499e+000  1.710018e+002 -3.436395e+001  1.056870e+002  2.218146e+001  5.049092e+000 -5.168405e+000  7.886947e+001
5.4814375000e+009 -7.300071e+000  1.701936e+002 -3.377982e+001  1.045247e+002  2.223409e+001  5.061021e+000 -5.109514e+000  7.955411e+001
5.4815625000e+009 -7.877991e+000  1.677269e+002 -3.328027e+001  1.115488e+002  2.223953e+001  5.464291e+000 -5.189729e+000  8.062554e+001
5.4816875000e+009 -7.323889e+000  1.713879e+002 -3.429144e+001  1.022080e+002  2.217687e+001  4.787594e+000 -5.150162e+000  7.877097e+001
5.4818125000e+009 -7.410200e+000  1.727335e+002 -3.503046e+001  9.978587e+001  2.216859e+001  4.508375e+000 -5.285876e+000  7.828815e+001
5.4819375000e+009 -7.831310e+000  1.664843e+002 -3.398677e+001  1.009894e+002  2.217354e+001  5.043417e+000 -5.149690e+000  7.849969e+001
5.4820625000e+009 -7.569559e+000  1.712106e+002 -3.432864e+001  9.919209e+001  2.213094e+001  4.445425e+000 -5.165854e+000  7.815907e+001
5.4821875000e+009 -7.684970e+000  1.701348e+002 -3.471770e+001  9.824916e+001  2.218121e+001  4.081072e+000 -5.239770e+000  7.856369e+001
5.4823125000e+009 -7.851524e+000  1.688148e+002 -3.429228e+001  9.928878e+001  2.217696e+001  4.575909e+000 -5.226430e+000  7.858509e+001
5.4824375000e+009 -7.601510e+000  1.699194e+002 -3.470704e+001  1.022540e+002  2.214595e+001  4.484998e+000 -5.280632e+000  7.897218e+001
5.4825625000e+009 -7.587618e+000  1.677401e+002 -3.470462e+001  1.004749e+002  2.206968e+001  4.823965e+000 -5.331440e+000  7.854581e+001
5.4826875000e+009 -7.883560e+000  1.643344e+002 -3.418794e+001  9.796075e+001  2.211536e+001  5.003388e+000 -5.258348e+000  7.829888e+001
5.4828125000e+009 -7.663956e+000  1.670707e+002 -3.475142e+001  1.031103e+002  2.210049e+001  4.453427e+000 -5.378232e+000  7.886246e+001
5.4829375000e+009 -7.614226e+000  1.672862e+002 -3.526582e+001  9.719421e+001  2.204121e+001  3.694973e+000 -5.390225e+000  7.794933e+001
5.4830625000e+009 -7.529315e+000  1.696231e+002 -3.378159e+001  1.027818e+002  2.205820e+001  3.416022e+000 -5.275860e+000  7.934888e+001
5.4831875000e+009 -7.990067e+000  1.681022e+002 -3.474934e+001  9.946474e+001  2.212971e+001  3.681237e+000 -5.375838e+000  7.842509e+001
5.4833125000e+009 -7.590379e+000  1.684762e+002 -3.404196e+001  9.350039e+001  2.196207e+001  3.746555e+000 -5.267153e+000  7.793630e+001
5.4834375000e+009 -8.059982e+000  1.666728e+002 -3.499620e+001  9.711254e+001  2.209517e+001  3.841209e+000 -5.460571e+000  7.794969e+001
5.4835625000e+009 -7.600108e+000  1.692488e+002 -3.427989e+001  9.796095e+001  2.199134e+001  3.521089e+000 -5.356870e+000  7.837212e+001
5.4836875000e+009 -7.680407e+000  1.687262e+002 -3.366882e+001  9.903892e+001  2.200891e+001  3.020510e+000 -5.304016e+000  7.868414e+001
5.4838125000e+009 -7.894558e+000  1.648929e+002 -3.458297e+001  9.666677e+001  2.198099e+001  3.940142e+000 -5.474631e+000  7.803728e+001
5.4839375000e+009 -7.467168e+000  1.677024e+002 -3.513784e+001  1.015918e+002  2.190634e+001  3.344839e+000 -5.577571e+000  7.860201e+001
5.4840625000e+009 -7.742111e+000  1.647817e+002 -3.472944e+001  9.408540e+001  2.193686e+001  3.271319e+000 -5.481109e+000  7.792208e+001
5.4841875000e+009 -7.953995e+000  1.665481e+002 -3.479442e+001  9.890826e+001  2.200124e+001  3.630024e+000 -5.572541e+000  7.841898e+001
5.4843125000e+009 -8.003942e+000  1.647727e+002 -3.490842e+001  9.388729e+001  2.197046e+001  3.516793e+000 -5.558452e+000  7.758421e+001
5.4844375000e+009 -7.862681e+000  1.631173e+002 -3.433588e+001  9.792007e+001  2.195233e+001  2.977671e+000 -5.514459e+000  7.834885e+001
5.4845625000e+009 -7.906718e+000  1.626898e+002 -3.439640e+001  9.906381e+001  2.187235e+001  3.596171e+000 -5.591226e+000  7.808810e+001
5.4846875000e+009 -7.853382e+000  1.648837e+002 -3.319741e+001  1.013566e+002  2.194473e+001  3.048890e+000 -5.401539e+000  7.946037e+001
5.4848125000e+009 -7.957039e+000  1.673278e+002 -3.445621e+001  9.706149e+001  2.193862e+001  2.703102e+000 -5.599919e+000  7.814735e+001
5.4849375000e+009 -8.361458e+000  1.655340e+002 -3.482349e+001  8.973561e+001  2.194328e+001  2.597051e+000 -5.642442e+000  7.709310e+001
5.4850625000e+009 -8.072912e+000  1.647088e+002 -3.445098e+001  9.611484e+001  2.193574e+001  3.043270e+000 -5.645696e+000  7.818437e+001
5.4851875000e+009 -8.050631e+000  1.666100e+002 -3.392212e+001  9.635822e+001  2.186633e+001  1.620198e+000 -5.542347e+000  7.814269e+001
5.4853125000e+009 -8.166494e+000  1.609646e+002 -3.476925e+001  9.582233e+001  2.194692e+001  2.894764e+000 -5.727598e+000  7.783824e+001
5.4854375000e+009 -8.072610e+000  1.644701e+002 -3.450275e+001  9.779797e+001  2.185601e+001  1.830744e+000 -5.704347e+000  7.807874e+001
5.4855625000e+009 -8.278090e+000  1.644657e+002 -3.390440e+001  9.094697e+001  2.182223e+001  2.074210e+000 -5.614721e+000  7.720800e+001
5.4856875000e+009 -8.440742e+000  1.616365e+002 -3.374262e+001  9.273229e+001  2.188122e+001  2.382303e+000 -5.605409e+000  7.773172e+001
5.4858125000e+009 -8.004731e+000  1.625534e+002 -3.508250e+001  1.014537e+002  2.181153e+001  2.968058e+000 -5.920334e+000  7.856795e+001
5.4859375000e+009 -8.100350e+000  1.620553e+002 -3.530537e+001  9.321495e+001  2.177259e+001  2.085269e+000 -5.890553e+000  7.720076e+001
5.4860625000e+009 -7.995397e+000  1.617065e+002 -3.495777e+001  9.455308e+001  2.179716e+001  2.529734e+000 -5.897169e+000  7.740968e+001
5.4861875000e+009 -8.193131e+000  1.651361e+002 -3.455550e+001  9.165583e+001  2.183220e+001  2.212143e+000 -5.876783e+000  7.736475e+001
5.4863125000e+009 -8.049909e+000  1.651506e+002 -3.538356e+001  9.697832e+001  2.177589e+001  7.237361e-001 -5.914866e+000  7.760142e+001
5.4864375000e+009 -8.430990e+000  1.621330e+002 -3.472161e+001  9.730347e+001  2.172923e+001  1.998642e+000 -5.947865e+000  7.773037e+001
5.4865625000e+009 -8.095736e+000  1.627659e+002 -3.573890e+001  9.929723e+001  2.181553e+001  2.806044e+000 -6.186823e+000  7.808717e+001
5.4866875000e+009 -8.182997e+000  1.597685e+002 -3.481042e+001  8.674397e+001  2.179705e+001  1.003145e+000 -5.914855e+000  7.637106e+001
5.4868125000e+009 -8.424838e+000  1.592718e+002 -3.509871e+001  8.863081e+001  2.179045e+001  1.975496e+000 -6.039689e+000  7.632915e+001
5.4869375000e+009 -8.372387e+000  1.608177e+002 -3.512490e+001  9.615495e+001  2.176987e+001  1.887265e+000 -6.099423e+000  7.768446e+001
5.4870625000e+009 -8.284351e+000  1.621930e+002 -3.488685e+001  9.400825e+001  2.183236e+001  8.990624e-001 -6.060063e+000  7.777815e+001
5.4871875000e+009 -8.396099e+000  1.613643e+002 -3.497840e+001  9.255966e+001  2.169771e+001  1.405518e+000 -6.118480e+000  7.699796e+001
5.4873125000e+009 -8.412193e+000  1.604432e+002 -3.499465e+001  9.179385e+001  2.176296e+001  1.178902e+000 -6.168538e+000  7.694693e+001
5.4874375000e+009 -8.466218e+000  1.624255e+002 -3.459594e+001  8.810310e+001  2.169329e+001  5.137044e-001 -6.073954e+000  7.625687e+001
5.4875625000e+009 -8.493812e+000  1.587906e+002 -3.500764e+001  8.441466e+001  2.177258e+001  9.761262e-001 -6.160939e+000  7.582826e+001
5.4876875000e+009 -8.606709e+000  1.610587e+002 -3.444381e+001  8.849725e+001  2.176358e+001  1.369238e+000 -6.153652e+000  7.636490e+001
5.4878125000e+009 -8.858584e+000  1.617475e+002 -3.432472e+001  9.449033e+001  2.171212e+001  1.555933e-001 -6.104753e+000  7.731955e+001
5.4879375000e+009 -8.439975e+000  1.588922e+002 -3.521420e+001  9.233280e+001  2.166389e+001  7.231064e-001 -6.341025e+000  7.672565e+001
5.4880625000e+009 -8.495819e+000  1.603172e+002 -3.468738e+001  8.816135e+001  2.160225e+001  1.339401e+000 -6.299657e+000  7.564149e+001
5.4881875000e+009 -8.745570e+000  1.584836e+002 -3.361945e+001  9.393045e+001  2.169995e+001  3.129733e-001 -6.119511e+000  7.694586e+001
5.4883125000e+009 -8.235746e+000  1.565567e+002 -3.539093e+001  9.084602e+001  2.169204e+001  2.082692e-001 -6.399631e+000  7.638731e+001
5.4884375000e+009 -8.546917e+000  1.584170e+002 -3.491432e+001  8.840205e+001  2.158379e+001  1.698380e+000 -6.514282e+000  7.565363e+001
5.4885625000e+009 -8.586409e+000  1.600946e+002 -3.447464e+001  9.270526e+001  2.161223e+001  4.614054e-001 -6.427265e+000  7.658959e+001
5.4886875000e+009 -8.647737e+000  1.580472e+002 -3.467856e+001  9.221976e+001  2.154693e+001  6.328673e-001 -6.502602e+000  7.597247e+001
5.4888125000e+009 -8.774025e+000  1.590525e+002 -3.522477e+001  8.977747e+001  2.159169e+001  2.465739e-001 -6.598214e+000  7.542268e+001
5.4889375000e+009 -8.697783e+000  1.601205e+002 -3.512504e+001  8.618235e+001  2.153173e+001 -6.368108e-001 -6.573460e+000  7.479967e+001
5.4890625000e+009 -8.505178e+000  1.568755e+002 -3.466471e+001  9.061720e+001  2.151414e+001  8.663330e-001 -6.662695e+000  7.542814e+001
5.4891875000e+009 -8.725241e+000  1.571893e+002 -3.496264e+001  9.020230e+001  2.150949e+001  9.220447e-001 -6.708815e+000  7.478947e+001
5.4893125000e+009 -8.629966e+000  1.579820e+002 -3.484960e+001  8.782642e+001  2.155651e+001  2.875823e-001 -6.716861e+000  7.505385e+001
5.4894375000e+009 -8.412822e+000  1.566902e+002 -3.514112e+001  9.169040e+001  2.150556e+001 -8.735628e-002 -6.733125e+000  7.507974e+001
5.4895625000e+009 -8.541839e+000  1.570210e+002 -3.464595e+001  8.714104e+001  2.150292e+001  6.645921e-001 -6.752725e+000  7.469011e+001
5.4896875000e+009 -8.631689e+000  1.563001e+002 -3.483474e+001  9.323727e+001  2.163877e+001 -6.431072e-001 -6.702489e+000  7.607711e+001
5.4898125000e+009 -8.407226e+000  1.567335e+002 -3.565821e+001  8.636617e+001  2.147060e+001 -4.141268e-001 -6.945546e+000  7.434409e+001
5.4899375000e+009 -8.506021e+000  1.577400e+002 -3.582668e+001  8.646212e+001  2.144983e+001  1.086171e-001 -7.085195e+000  7.382336e+001
5.4900625000e+009 -8.658063e+000  1.578534e+002 -3.500418e+001  8.482481e+001  2.139648e+001  2.336873e-002 -6.997481e+000  7.313349e+001
5.4901875000e+009 -8.468862e+000  1.555193e+002 -3.566436e+001  8.501661e+001  2.156821e+001  3.209960e-002 -7.101051e+000  7.435396e+001
5.4903125000e+009 -8.521291e+000  1.553114e+002 -3.500928e+001  8.591833e+001  2.143132e+001  2.352716e-001 -7.095713e+000  7.340684e+001
5.4904375000e+009 -8.592046e+000  1.575505e+002 -3.472756e+001  8.252937e+001  2.150227e+001 -1.178197e+000 -6.958176e+000  7.325665e+001
5.4905625000e+009 -8.416091e+000  1.556393e+002 -3.540981e+001  8.146458e+001  2.138276e+001 -5.219553e-001 -7.161242e+000  7.226340e+001
5.4906875000e+009 -8.468496e+000  1.559259e+002 -3.523785e+001  8.187751e+001  2.137061e+001  2.661033e-001 -7.285819e+000  7.229541e+001
5.4908125000e+009 -8.790116e+000  1.561908e+002 -3.481741e+001  8.347278e+001  2.148430e+001 -4.859291e-001 -7.258568e+000  7.294752e+001
5.4909375000e+009 -8.410903e+000  1.552053e+002 -3.558081e+001  8.540035e+001  2.136204e+001 -7.156101e-001 -7.302409e+000  7.258100e+001
5.4910625000e+009 -8.490291e+000  1.550556e+002 -3.533844e+001  8.962178e+001  2.132154e+001  1.809012e-001 -7.418563e+000  7.296375e+001
5.4911875000e+009 -8.589314e+000  1.557539e+002 -3.521703e+001  8.284027e+001  2.133971e+001 -4.448587e-001 -7.401152e+000  7.206779e+001
5.4913125000e+009 -8.499260e+000  1.539377e+002 -3.436751e+001  8.568830e+001  2.134626e+001 -5.417675e-001 -7.249856e+000  7.228365e+001
5.4914375000e+009 -8.496175e+000  1.546856e+002 -3.535204e+001  8.230870e+001  2.132036e+001 -8.076954e-001 -7.472340e+000  7.161840e+001
5.4915625000e+009 -8.526336e+000  1.542171e+002 -3.519582e+001  8.590150e+001  2.137219e+001 -7.446933e-001 -7.497089e+000  7.229895e+001
5.4916875000e+009 -8.531205e+000  1.545547e+002 -3.548405e+001  8.241618e+001  2.124449e+001 -6.610564e-001 -7.613299e+000  7.051342e+001
5.4918125000e+009 -8.672090e+000  1.533920e+002 -3.458801e+001  8.799551e+001  2.128700e+001 -3.553048e-001 -7.529055e+000  7.161854e+001
5.4919375000e+009 -8.604405e+000  1.547404e+002 -3.488831e+001  8.096928e+001  2.143885e+001 -1.360868e+000 -7.520655e+000  7.181611e+001
5.4920625000e+009 -8.589520e+000  1.541030e+002 -3.536971e+001  8.088544e+001  2.126402e+001 -1.222526e+000 -7.664728e+000  7.024818e+001
5.4921875000e+009 -8.637891e+000  1.531679e+002 -3.514012e+001  8.814558e+001  2.122837e+001 -5.167117e-001 -7.783559e+000  7.116591e+001
5.4923125000e+009 -8.708763e+000  1.529490e+002 -3.460129e+001  8.829279e+001  2.126270e+001 -1.287457e+000 -7.662375e+000  7.138068e+001
5.4924375000e+009 -8.658250e+000  1.526964e+002 -3.472638e+001  8.112969e+001  2.128303e+001 -1.638340e+000 -7.641605e+000  6.979095e+001
5.4925625000e+009 -8.647447e+000  1.532339e+002 -3.503947e+001  8.513313e+001  2.122976e+001 -8.912681e-001 -7.837916e+000  7.012603e+001
5.4926875000e+009 -8.655870e+000  1.529849e+002 -3.477754e+001  8.220387e+001  2.115761e+001 -1.438405e+000 -7.741799e+000  6.909755e+001
5.4928125000e+009 -8.682520e+000  1.527224e+002 -3.553378e+001  7.982672e+001  2.124249e+001 -1.551838e+000 -7.945358e+000  6.920103e+001
5.4929375000e+009 -8.592413e+000  1.525171e+002 -3.574250e+001  8.448908e+001  2.117129e+001 -1.150646e+000 -8.097659e+000  6.932796e+001
5.4930625000e+009 -8.680143e+000  1.526274e+002 -3.513996e+001  8.314042e+001  2.113566e+001 -1.731662e+000 -7.930029e+000  6.877495e+001
5.4931875000e+009 -8.611524e+000  1.521009e+002 -3.515869e+001  8.308664e+001  2.117001e+001 -1.294663e+000 -8.082020e+000  6.885407e+001
5.4933125000e+009 -8.710239e+000  1.518082e+002 -3.499651e+001  8.581662e+001  2.109894e+001 -1.474284e+000 -8.010053e+000  6.846037e+001
5.4934375000e+009 -8.651534e+000  1.515576e+002 -3.551868e+001  8.545445e+001  2.100764e+001 -1.692603e+000 -8.191817e+000  6.742717e+001
5.4935625000e+009 -8.710976e+000  1.521876e+002 -3.588421e+001  7.697475e+001  2.120803e+001 -1.991422e+000 -8.299152e+000  6.793488e+001
5.4936875000e+009 -8.702817e+000  1.513723e+002 -3.603985e+001  8.326933e+001  2.108135e+001 -1.820454e+000 -8.340507e+000  6.782554e+001
5.4938125000e+009 -8.708396e+000  1.514094e+002 -3.499459e+001  8.243806e+001  2.115899e+001 -2.347221e+000 -8.140771e+000  6.802338e+001
5.4939375000e+009 -8.715281e+000  1.512899e+002 -3.576978e+001  8.375993e+001  2.118076e+001 -2.380072e+000 -8.302946e+000  6.813024e+001
5.4940625000e+009 -8.785988e+000  1.508782e+002 -3.514000e+001  8.479633e+001  2.105619e+001 -2.070004e+000 -8.364742e+000  6.676142e+001
5.4941875000e+009 -8.707221e+000  1.499782e+002 -3.505979e+001  8.613617e+001  2.115482e+001 -2.388343e+000 -8.244848e+000  6.792007e+001
5.4943125000e+009 -8.796184e+000  1.500236e+002 -3.607854e+001  8.077601e+001  2.111426e+001 -2.426222e+000 -8.464964e+000  6.631963e+001
5.4944375000e+009 -8.773890e+000  1.503313e+002 -3.491243e+001  7.847334e+001  2.113812e+001 -2.156865e+000 -8.497662e+000  6.629600e+001
5.4945625000e+009 -8.641940e+000  1.504766e+002 -3.614205e+001  8.265387e+001  2.108332e+001 -2.433056e+000 -8.646763e+000  6.653094e+001
5.4946875000e+009 -8.819411e+000  1.500822e+002 -3.565875e+001  7.782944e+001  2.101889e+001 -2.708401e+000 -8.568027e+000  6.455029e+001
5.4948125000e+009 -8.890084e+000  1.490833e+002 -3.529795e+001  7.771603e+001  2.103000e+001 -2.633533e+000 -8.571082e+000  6.426147e+001
5.4949375000e+009 -8.741018e+000  1.493085e+002 -3.545251e+001  8.023792e+001  2.105178e+001 -2.816715e+000 -8.571996e+000  6.562856e+001
5.4950625000e+009 -8.732470e+000  1.492796e+002 -3.599321e+001  8.097296e+001  2.107950e+001 -2.993681e+000 -8.791571e+000  6.576586e+001
5.4951875000e+009 -8.958586e+000  1.492394e+002 -3.475618e+001  7.349442e+001  2.104852e+001 -2.943099e+000 -8.613781e+000  6.284968e+001
5.4953125000e+009 -8.766010e+000  1.486342e+002 -3.639592e+001  8.343930e+001  2.112497e+001 -2.864978e+000 -8.977904e+000  6.655602e+001
5.4954375000e+009 -8.810526e+000  1.482892e+002 -3.616514e+001  7.719590e+001  2.110223e+001 -2.911600e+000 -8.974629e+000  6.474143e+001
5.4955625000e+009 -8.873843e+000  1.478871e+002 -3.614105e+001  7.525623e+001  2.101480e+001 -3.100128e+000 -8.868899e+000  6.273950e+001
5.4956875000e+009 -9.073894e+000  1.481331e+002 -3.524225e+001  7.436034e+001  2.107835e+001 -3.183577e+000 -8.941680e+000  6.271135e+001
5.4958125000e+009 -8.889694e+000  1.488009e+002 -3.586053e+001  7.387080e+001  2.103622e+001 -3.218005e+000 -9.076643e+000  6.289926e+001
5.4959375000e+009 -9.040509e+000  1.472782e+002 -3.616287e+001  7.711308e+001  2.100083e+001 -3.943665e+000 -8.927225e+000  6.190397e+001
5.4960625000e+009 -8.765592e+000  1.478146e+002 -3.699608e+001  8.163519e+001  2.105479e+001 -3.560174e+000 -9.190538e+000  6.423214e+001
5.4961875000e+009 -9.168786e+000  1.463921e+002 -3.583099e+001  7.706544e+001  2.104853e+001 -3.766130e+000 -9.008615e+000  6.178693e+001
5.4963125000e+009 -8.943906e+000  1.472136e+002 -3.526381e+001  7.432047e+001  2.097460e+001 -3.990093e+000 -8.908792e+000  6.054153e+001
5.4964375000e+009 -8.925406e+000  1.472403e+002 -3.560411e+001  7.625291e+001  2.099407e+001 -3.713198e+000 -9.168551e+000  6.154071e+001
5.4965625000e+009 -9.166838e+000  1.455971e+002 -3.708653e+001  7.328353e+001  2.109430e+001 -3.699334e+000 -9.551344e+000  6.264970e+001
5.4966875000e+009 -9.097350e+000  1.464100e+002 -3.628798e+001  7.931155e+001  2.097985e+001 -4.210266e+000 -9.213408e+000  6.111708e+001
5.4968125000e+009 -8.966298e+000  1.469892e+002 -3.593929e+001  7.171756e+001  2.098846e+001 -3.975876e+000 -9.240948e+000  5.926146e+001
5.4969375000e+009 -9.082493e+000  1.463063e+002 -3.596303e+001  7.566519e+001  2.101614e+001 -4.204449e+000 -9.431886e+000  6.129109e+001
5.4970625000e+009 -9.201098e+000  1.450556e+002 -3.565592e+001  7.553382e+001  2.099608e+001 -4.335323e+000 -9.230039e+000  5.885376e+001
5.4971875000e+009 -8.919596e+000  1.477291e+002 -3.686923e+001  7.739575e+001  2.096025e+001 -4.527740e+000 -9.425784e+000  6.083784e+001
5.4973125000e+009 -8.999563e+000  1.458945e+002 -3.670217e+001  7.429890e+001  2.097560e+001 -4.482522e+000 -9.687600e+000  5.899413e+001
5.4974375000e+009 -9.082249e+000  1.458063e+002 -3.585656e+001  7.461346e+001  2.094481e+001 -4.842669e+000 -9.194802e+000  5.829003e+001
5.4975625000e+009 -8.969055e+000  1.458643e+002 -3.564033e+001  7.150940e+001  2.093085e+001 -4.782482e+000 -9.498140e+000  5.770881e+001
5.4976875000e+009 -9.173280e+000  1.443759e+002 -3.661863e+001  7.685566e+001  2.097238e+001 -4.579163e+000 -9.801432e+000  5.980308e+001
5.4978125000e+009 -9.158587e+000  1.452712e+002 -3.554197e+001  6.801613e+001  2.095769e+001 -5.216952e+000 -9.324604e+000  5.619687e+001
5.4979375000e+009 -9.288150e+000  1.449080e+002 -3.585211e+001  7.236749e+001  2.092236e+001 -5.353901e+000 -9.415193e+000  5.677827e+001
5.4980625000e+009 -9.306044e+000  1.439527e+002 -3.580387e+001  7.572852e+001  2.096492e+001 -5.160763e+000 -9.615843e+000  5.773429e+001
5.4981875000e+009 -9.296263e+000  1.430869e+002 -3.644860e+001  7.541053e+001  2.096396e+001 -5.600586e+000 -9.394918e+000  5.652281e+001
5.4983125000e+009 -9.400133e+000  1.438820e+002 -3.546954e+001  7.507076e+001  2.097138e+001 -5.490825e+000 -9.589268e+000  5.671379e+001
5.4984375000e+009 -9.292295e+000  1.429536e+002 -3.701003e+001  7.462824e+001  2.096475e+001 -5.687778e+000 -9.895292e+000  5.650591e+001
5.4985625000e+009 -9.387415e+000  1.434540e+002 -3.644906e+001  7.119321e+001  2.094962e+001 -5.621384e+000 -9.738387e+000  5.535691e+001
5.4986875000e+009 -9.184394e+000  1.447706e+002 -3.679878e+001  7.394366e+001  2.088582e+001 -5.860278e+000 -9.810106e+000  5.592833e+001
5.4988125000e+009 -9.305034e+000  1.414000e+002 -3.658822e+001  7.425571e+001  2.097205e+001 -5.813355e+000 -9.782263e+000  5.512550e+001
5.4989375000e+009 -9.382649e+000  1.441167e+002 -3.649555e+001  7.314271e+001  2.090913e+001 -6.564382e+000 -9.586732e+000  5.360463e+001
5.4990625000e+009 -9.318017e+000  1.403112e+002 -3.685944e+001  7.649385e+001  2.097903e+001 -6.010502e+000 -1.002412e+001  5.590632e+001
5.4991875000e+009 -9.459847e+000  1.405282e+002 -3.631237e+001  7.263944e+001  2.095590e+001 -6.427655e+000 -1.034149e+001  5.323316e+001
5.4993125000e+009 -9.222915e+000  1.424604e+002 -3.760068e+001  6.274635e+001  2.091463e+001 -6.142696e+000 -1.031324e+001  5.179761e+001
5.4994375000e+009 -9.344215e+000  1.437801e+002 -3.594106e+001  7.353702e+001  2.085176e+001 -6.653251e+000 -9.968067e+000  5.443685e+001
5.4995625000e+009 -9.418719e+000  1.409532e+002 -3.676745e+001  7.252590e+001  2.092951e+001 -6.251640e+000 -1.011448e+001  5.471534e+001
5.4996875000e+009 -9.503070e+000  1.395268e+002 -3.630707e+001  7.113039e+001  2.092442e+001 -6.555899e+000 -1.008556e+001  5.350377e+001
5.4998125000e+009 -9.424071e+000  1.418859e+002 -3.739363e+001  7.559519e+001  2.091342e+001 -7.047355e+000 -1.016971e+001  5.247390e+001
5.4999375000e+009 -9.559089e+000  1.375810e+002 -3.655910e+001  7.112089e+001  2.097368e+001 -6.946478e+000 -1.010824e+001  5.231559e+001
5.5000625000e+009 -9.599677e+000  1.416037e+002 -3.604532e+001  7.245454e+001  2.087979e+001 -7.115956e+000 -9.983654e+000  5.274852e+001
5.5001875000e+009 -9.445938e+000  1.424252e+002 -3.728889e+001  7.066037e+001  2.084199e+001 -7.463930e+000 -1.055784e+001  5.251796e+001
5.5003125000e+009 -9.672614e+000  1.385940e+002 -3.651441e+001  7.167495e+001  2.095875e+001 -7.491772e+000 -1.001027e+001  5.077216e+001
5.5004375000e+009 -9.539758e+000  1.367136e+002 -3.684046e+001  7.334320e+001  2.098867e+001 -7.208869e+000 -9.967910e+000  5.098963e+001
5.5005625000e+009 -9.682551e+000  1.397271e+002 -3.635859e+001  7.482431e+001  2.093634e+001 -7.399416e+000 -1.010630e+001  5.139922e+001
5.5006875000e+009 -9.515422e+000  1.371197e+002 -3.732694e+001  7.121264e+001  2.100532e+001 -7.495432e+000 -1.012892e+001  4.861843e+001
5.5008125000e+009 -9.775871e+000  1.369090e+002 -3.676345e+001  7.642534e+001  2.100936e+001 -7.336947e+000 -9.837438e+000  5.008702e+001
5.5009375000e+009 -9.644709e+000  1.401727e+002 -3.649140e+001  7.847033e+001  2.091394e+001 -7.908127e+000 -1.018251e+001  5.008808e+001
5.5010625000e+009 -9.424497e+000  1.370646e+002 -3.668377e+001  6.959443e+001  2.094468e+001 -7.946022e+000 -1.030972e+001  4.821019e+001
5.5011875000e+009 -9.751481e+000  1.374840e+002 -3.690656e+001  6.778531e+001  2.098787e+001 -7.741030e+000 -1.001926e+001  4.781161e+001
5.5013125000e+009 -9.801205e+000  1.381763e+002 -3.647316e+001  7.263643e+001  2.094460e+001 -8.444553e+000 -1.031130e+001  4.780614e+001
5.5014375000e+009 -9.711573e+000  1.382138e+002 -3.675798e+001  7.251945e+001  2.093724e+001 -8.528351e+000 -1.053719e+001  4.709884e+001
5.5015625000e+009 -9.694154e+000  1.362448e+002 -3.664057e+001  6.286450e+001  2.096281e+001 -8.366378e+000 -1.038204e+001  4.554713e+001
5.5016875000e+009 -9.726068e+000  1.380505e+002 -3.686589e+001  7.199431e+001  2.088564e+001 -8.496222e+000 -1.024825e+001  4.754588e+001
5.5018125000e+009 -9.815410e+000  1.374759e+002 -3.686805e+001  6.683311e+001  2.090254e+001 -8.767133e+000 -1.060974e+001  4.591739e+001
5.5019375000e+009 -9.730445e+000  1.342635e+002 -3.740961e+001  7.509866e+001  2.097741e+001 -8.317261e+000 -1.017014e+001  4.761255e+001
5.5020625000e+009 -9.654070e+000  1.365523e+002 -3.721553e+001  7.344062e+001  2.088223e+001 -8.692495e+000 -1.042948e+001  4.685475e+001
5.5021875000e+009 -9.766754e+000  1.364795e+002 -3.675267e+001  6.753527e+001  2.088173e+001 -9.254568e+000 -1.049526e+001  4.450412e+001
5.5023125000e+009 -9.913201e+000  1.336196e+002 -3.705655e+001  6.911303e+001  2.098132e+001 -8.947552e+000 -1.048552e+001  4.448053e+001
5.5024375000e+009 -9.767556e+000  1.384264e+002 -3.710603e+001  6.717323e+001  2.087405e+001 -9.419074e+000 -1.058045e+001  4.366322e+001
5.5025625000e+009 -9.719083e+000  1.364292e+002 -3.742885e+001  7.205432e+001  2.083298e+001 -9.223067e+000 -1.065140e+001  4.546844e+001
5.5026875000e+009 -9.795516e+000  1.351953e+002 -3.701480e+001  6.502471e+001  2.092209e+001 -9.543062e+000 -1.044491e+001  4.310317e+001
5.5028125000e+009 -1.000076e+001  1.382200e+002 -3.748881e+001  6.445140e+001  2.079436e+001 -9.683661e+000 -1.076456e+001  4.349067e+001
5.5029375000e+009 -1.002241e+001  1.346353e+002 -3.620743e+001  6.987093e+001  2.087149e+001 -9.831407e+000 -1.042672e+001  4.335917e+001
5.5030625000e+009 -9.734808e+000  1.342704e+002 -3.728464e+001  6.380633e+001  2.088912e+001 -9.305452e+000 -1.044603e+001  4.269173e+001
5.5031875000e+009 -1.027454e+001  1.384420e+002 -3.799053e+001  7.063302e+001  2.087404e+001 -1.053245e+001 -1.069544e+001  4.194093e+001
5.5033125000e+009 -1.004671e+001  1.348291e+002 -3.717073e+001  6.455137e+001  2.095632e+001 -1.050947e+001 -1.064377e+001  4.007217e+001
5.5034375000e+009 -9.893651e+000  1.339997e+002 -3.771704e+001  7.118249e+001  2.101942e+001 -1.024854e+001 -1.044253e+001  4.088803e+001
5.5035625000e+009 -1.010114e+001  1.362429e+002 -3.622004e+001  6.971736e+001  2.097654e+001 -1.055177e+001 -1.015500e+001  3.997080e+001
5.5036875000e+009 -9.699210e+000  1.332690e+002 -3.832857e+001  6.533345e+001  2.091239e+001 -1.035384e+001 -1.081021e+001  4.051184e+001
5.5038125000e+009 -1.008447e+001  1.327593e+002 -3.670734e+001  6.708073e+001  2.096842e+001 -1.048698e+001 -1.032412e+001  3.977085e+001
5.5039375000e+009 -1.026490e+001  1.337308e+002 -3.702924e+001  6.499595e+001  2.094169e+001 -1.069087e+001 -1.045378e+001  3.923962e+001
5.5040625000e+009 -1.000371e+001  1.340267e+002 -3.784529e+001  7.116154e+001  2.102163e+001 -1.192043e+001 -1.081455e+001  3.663853e+001
5.5041875000e+009 -1.008962e+001  1.299075e+002 -3.704947e+001  6.736291e+001  2.095619e+001 -1.004416e+001 -1.024471e+001  4.037265e+001
5.5043125000e+009 -1.020898e+001  1.337616e+002 -3.715027e+001  6.558533e+001  2.088209e+001 -1.124538e+001 -1.047359e+001  3.851971e+001
5.5044375000e+009 -9.977911e+000  1.325349e+002 -3.708671e+001  6.540264e+001  2.090104e+001 -1.141988e+001 -1.057973e+001  3.773751e+001
5.5045625000e+009 -1.013893e+001  1.326377e+002 -3.736435e+001  6.858910e+001  2.090459e+001 -1.135161e+001 -1.056693e+001  3.824316e+001
5.5046875000e+009 -1.034482e+001  1.339310e+002 -3.711751e+001  6.425397e+001  2.085891e+001 -1.158050e+001 -1.054886e+001  3.814066e+001
5.5048125000e+009 -1.008356e+001  1.303673e+002 -3.794907e+001  6.936597e+001  2.093065e+001 -1.208964e+001 -1.073573e+001  3.719369e+001
5.5049375000e+009 -1.007001e+001  1.304429e+002 -3.773012e+001  6.983759e+001  2.094330e+001 -1.112100e+001 -1.040362e+001  3.893301e+001
5.5050625000e+009 -1.017088e+001  1.316330e+002 -3.826323e+001  6.526778e+001  2.092629e+001 -1.192846e+001 -1.061218e+001  3.639175e+001
5.5051875000e+009 -1.044306e+001  1.310408e+002 -3.761625e+001  6.288071e+001  2.099098e+001 -1.250970e+001 -1.058185e+001  3.416085e+001
5.5053125000e+009 -1.024159e+001  1.298052e+002 -3.707289e+001  6.565101e+001  2.092149e+001 -1.262486e+001 -1.055743e+001  3.535869e+001
5.5054375000e+009 -1.034600e+001  1.306437e+002 -3.684436e+001  7.026905e+001  2.092599e+001 -1.257901e+001 -1.039037e+001  3.614214e+001
5.5055625000e+009 -1.033506e+001  1.320690e+002 -3.736381e+001  6.369816e+001  2.102784e+001 -1.304659e+001 -1.044788e+001  3.280170e+001
5.5056875000e+009 -1.042890e+001  1.299915e+002 -3.746791e+001  7.078909e+001  2.100390e+001 -1.264408e+001 -1.033818e+001  3.506842e+001
5.5058125000e+009 -1.015999e+001  1.299689e+002 -3.751375e+001  6.400800e+001  2.102375e+001 -1.300260e+001 -1.039648e+001  3.273524e+001
5.5059375000e+009 -1.011088e+001  1.286429e+002 -3.860243e+001  6.061139e+001  2.098628e+001 -1.321196e+001 -1.082819e+001  3.282381e+001
5.5060625000e+009 -1.027544e+001  1.294093e+002 -3.845911e+001  6.592953e+001  2.099659e+001 -1.259033e+001 -1.043915e+001  3.385128e+001
5.5061875000e+009 -1.059249e+001  1.296559e+002 -3.777085e+001  6.528210e+001  2.094942e+001 -1.361820e+001 -1.054438e+001  3.317148e+001
5.5063125000e+009 -1.032700e+001  1.300951e+002 -3.754623e+001  6.096473e+001  2.100443e+001 -1.385819e+001 -1.053591e+001  3.099939e+001
5.5064375000e+009 -1.013020e+001  1.286856e+002 -3.819792e+001  6.105416e+001  2.097319e+001 -1.324967e+001 -1.052301e+001  3.194370e+001
5.5065625000e+009 -1.057692e+001  1.302074e+002 -3.739170e+001  6.571320e+001  2.087664e+001 -1.377387e+001 -1.049155e+001  3.285150e+001
5.5066875000e+009 -1.043304e+001  1.280407e+002 -3.757291e+001  5.815704e+001  2.101297e+001 -1.479628e+001 -1.063109e+001  2.897947e+001
5.5068125000e+009 -1.014632e+001  1.269143e+002 -3.873708e+001  6.637553e+001  2.102867e+001 -1.420079e+001 -1.060966e+001  3.161893e+001
5.5069375000e+009 -1.033340e+001  1.287062e+002 -3.800906e+001  6.588132e+001  2.093121e+001 -1.308992e+001 -1.030202e+001  3.303063e+001
5.5070625000e+009 -1.037617e+001  1.267717e+002 -3.829436e+001  6.692178e+001  2.098652e+001 -1.447668e+001 -1.052918e+001  3.172224e+001
5.5071875000e+009 -1.028471e+001  1.269495e+002 -3.820622e+001  6.350655e+001  2.088409e+001 -1.452309e+001 -1.060992e+001  3.093392e+001
5.5073125000e+009 -1.039067e+001  1.267282e+002 -3.846128e+001  6.557664e+001  2.107482e+001 -1.401597e+001 -1.033122e+001  3.043809e+001
5.5074375000e+009 -1.076441e+001  1.274082e+002 -3.764507e+001  6.544772e+001  2.097546e+001 -1.546545e+001 -1.043673e+001  2.972134e+001
5.5075625000e+009 -1.031979e+001  1.261822e+002 -3.833123e+001  6.392553e+001  2.081545e+001 -1.401626e+001 -1.045092e+001  3.215523e+001
5.5076875000e+009 -1.074448e+001  1.275112e+002 -3.744262e+001  6.312605e+001  2.092052e+001 -1.450783e+001 -1.020529e+001  3.041712e+001
5.5078125000e+009 -1.056221e+001  1.262432e+002 -3.766764e+001  6.273632e+001  2.107853e+001 -1.496170e+001 -1.023366e+001  2.862430e+001
5.5079375000e+009 -1.028226e+001  1.268859e+002 -3.745463e+001  6.045128e+001  2.086053e+001 -1.473830e+001 -1.027830e+001  2.940437e+001
5.5080625000e+009 -1.062834e+001  1.258580e+002 -3.903744e+001  6.397062e+001  2.103053e+001 -1.540424e+001 -1.046230e+001  2.895315e+001
5.5081875000e+009 -1.064861e+001  1.261226e+002 -3.811973e+001  6.284185e+001  2.107056e+001 -1.603135e+001 -1.031967e+001  2.728042e+001
5.5083125000e+009 -1.040999e+001  1.257637e+002 -3.744701e+001  6.372011e+001  2.098011e+001 -1.576742e+001 -1.020928e+001  2.804741e+001
5.5084375000e+009 -1.054536e+001  1.249736e+002 -3.730555e+001  6.223437e+001  2.097503e+001 -1.524131e+001 -1.009428e+001  2.821640e+001
5.5085625000e+009 -1.067683e+001  1.241658e+002 -3.858212e+001  6.402290e+001  2.112040e+001 -1.587053e+001 -1.024767e+001  2.790111e+001
5.5086875000e+009 -1.038561e+001  1.254904e+002 -3.794914e+001  5.730677e+001  2.092598e+001 -1.597338e+001 -1.031784e+001  2.693554e+001
5.5088125000e+009 -1.067130e+001  1.244741e+002 -3.820804e+001  6.137344e+001  2.081681e+001 -1.590364e+001 -1.032412e+001  2.833339e+001
5.5089375000e+009 -1.071735e+001  1.241919e+002 -3.836115e+001  5.669470e+001  2.101396e+001 -1.609422e+001 -1.023702e+001  2.648191e+001
5.5090625000e+009 -1.047950e+001  1.251934e+002 -3.751700e+001  6.296276e+001  2.094390e+001 -1.641551e+001 -1.010449e+001  2.702029e+001
5.5091875000e+009 -1.049704e+001  1.236469e+002 -3.783544e+001  6.168806e+001  2.095180e+001 -1.648357e+001 -1.018072e+001  2.682375e+001
5.5093125000e+009 -1.066931e+001  1.237422e+002 -3.770276e+001  7.030681e+001  2.112239e+001 -1.693202e+001 -9.958737e+000  2.723790e+001
5.5094375000e+009 -1.047014e+001  1.234752e+002 -3.820993e+001  6.239561e+001  2.096440e+001 -1.663973e+001 -1.013794e+001  2.699741e+001
5.5095625000e+009 -1.072961e+001  1.224059e+002 -3.776951e+001  6.263846e+001  2.105160e+001 -1.741581e+001 -1.007628e+001  2.543952e+001
5.5096875000e+009 -1.069916e+001  1.226408e+002 -3.793690e+001  5.952684e+001  2.123000e+001 -1.768219e+001 -1.000358e+001  2.410820e+001
5.5098125000e+009 -1.060460e+001  1.233613e+002 -3.758505e+001  6.152071e+001  2.106155e+001 -1.767727e+001 -9.994309e+000  2.505544e+001
5.5099375000e+009 -1.074199e+001  1.222938e+002 -3.792017e+001  5.813679e+001  2.097905e+001 -1.770037e+001 -1.008394e+001  2.467084e+001
5.5100625000e+009 -1.075115e+001  1.214919e+002 -3.865138e+001  6.370818e+001  2.100030e+001 -1.806768e+001 -1.022495e+001  2.580287e+001
5.5101875000e+009 -1.065833e+001  1.224959e+002 -3.847826e+001  5.764354e+001  2.094374e+001 -1.766436e+001 -1.017182e+001  2.508664e+001
5.5103125000e+009 -1.079291e+001  1.217598e+002 -3.731338e+001  5.856231e+001  2.103753e+001 -1.793136e+001 -9.876267e+000  2.369729e+001
5.5104375000e+009 -1.068235e+001  1.204956e+002 -3.890414e+001  6.372031e+001  2.115863e+001 -1.808018e+001 -1.002020e+001  2.520417e+001
5.5105625000e+009 -1.068806e+001  1.214225e+002 -3.859970e+001  5.917080e+001  2.110045e+001 -1.836708e+001 -1.002199e+001  2.401272e+001
5.5106875000e+009 -1.069681e+001  1.209953e+002 -3.808954e+001  6.487827e+001  2.101571e+001 -1.850563e+001 -9.942606e+000  2.491867e+001
5.5108125000e+009 -1.074268e+001  1.210034e+002 -3.802024e+001  5.807309e+001  2.120875e+001 -1.865070e+001 -9.867877e+000  2.301849e+001
5.5109375000e+009 -1.066654e+001  1.210150e+002 -3.832841e+001  5.921302e+001  2.112538e+001 -1.846002e+001 -9.861856e+000  2.343889e+001
5.5110625000e+009 -1.071323e+001  1.205143e+002 -3.829826e+001  5.484252e+001  2.097000e+001 -1.851011e+001 -9.943002e+000  2.346194e+001
5.5111875000e+009 -1.081700e+001  1.197475e+002 -3.840568e+001  6.500630e+001  2.119717e+001 -1.875050e+001 -9.774655e+000  2.384741e+001
5.5113125000e+009 -1.082845e+001  1.194010e+002 -3.801624e+001  6.334579e+001  2.108947e+001 -1.928811e+001 -9.725046e+000  2.362932e+001
5.5114375000e+009 -1.087091e+001  1.190851e+002 -3.880423e+001  6.222261e+001  2.104695e+001 -1.931516e+001 -9.860926e+000  2.373233e+001
5.5115625000e+009 -1.079934e+001  1.189219e+002 -3.811412e+001  6.015971e+001  2.119867e+001 -1.938641e+001 -9.672565e+000  2.247763e+001
5.5116875000e+009 -1.085004e+001  1.191130e+002 -3.798217e+001  5.942963e+001  2.106243e+001 -1.963786e+001 -9.692323e+000  2.287485e+001
5.5118125000e+009 -1.073536e+001  1.192073e+002 -3.870297e+001  5.670687e+001  2.104985e+001 -1.953269e+001 -9.926443e+000  2.296629e+001
5.5119375000e+009 -1.081307e+001  1.184762e+002 -3.797805e+001  5.869880e+001  2.117163e+001 -1.974949e+001 -9.662576e+000  2.234468e+001
5.5120625000e+009 -1.068951e+001  1.187765e+002 -3.876704e+001  5.309039e+001  2.115245e+001 -1.980787e+001 -9.783638e+000  2.165302e+001
5.5121875000e+009 -1.080638e+001  1.180099e+002 -3.830892e+001  6.083373e+001  2.118265e+001 -1.984155e+001 -9.701312e+000  2.230364e+001
5.5123125000e+009 -1.084430e+001  1.180638e+002 -3.811222e+001  5.684172e+001  2.123120e+001 -2.002294e+001 -9.577291e+000  2.151134e+001
5.5124375000e+009 -1.075904e+001  1.173374e+002 -3.898408e+001  6.083171e+001  2.118041e+001 -2.036613e+001 -9.679503e+000  2.267983e+001
5.5125625000e+009 -1.081485e+001  1.176895e+002 -3.829169e+001  6.023471e+001  2.114201e+001 -2.058856e+001 -9.641009e+000  2.196222e+001
5.5126875000e+009 -1.084130e+001  1.169650e+002 -3.823267e+001  6.115955e+001  2.123534e+001 -2.074238e+001 -9.534369e+000  2.157853e+001
5.5128125000e+009 -1.076235e+001  1.170843e+002 -3.910701e+001  5.555889e+001  2.121893e+001 -2.085693e+001 -9.700974e+000  2.144942e+001
5.5129375000e+009 -1.090484e+001  1.171834e+002 -3.777904e+001  5.595464e+001  2.111531e+001 -2.121986e+001 -9.579143e+000  2.093021e+001
5.5130625000e+009 -1.079234e+001  1.163603e+002 -3.895991e+001  6.001858e+001  2.118001e+001 -2.143460e+001 -9.654554e+000  2.156733e+001
5.5131875000e+009 -1.079877e+001  1.160832e+002 -3.895785e+001  5.487954e+001  2.114593e+001 -2.160228e+001 -9.673418e+000  2.046433e+001
5.5133125000e+009 -1.087847e+001  1.158825e+002 -3.849633e+001  5.578710e+001  2.119859e+001 -2.124970e+001 -9.620815e+000  2.051238e+001
5.5134375000e+009 -1.084872e+001  1.150939e+002 -3.891765e+001  6.108094e+001  2.128116e+001 -2.152407e+001 -9.626031e+000  2.158860e+001
5.5135625000e+009 -1.088009e+001  1.154075e+002 -3.828603e+001  5.478760e+001  2.126208e+001 -2.164380e+001 -9.574389e+000  2.017198e+001
5.5136875000e+009 -1.086439e+001  1.147367e+002 -3.885539e+001  5.768295e+001  2.115644e+001 -2.240325e+001 -9.576484e+000  2.083786e+001
5.5138125000e+009 -1.086732e+001  1.142456e+002 -3.938742e+001  5.986148e+001  2.129028e+001 -2.188666e+001 -9.659070e+000  2.059605e+001
5.5139375000e+009 -1.083860e+001  1.139591e+002 -3.911430e+001  5.643904e+001  2.119642e+001 -2.259849e+001 -9.597789e+000  1.993057e+001
5.5140625000e+009 -1.087091e+001  1.138999e+002 -3.877565e+001  5.486816e+001  2.120575e+001 -2.256848e+001 -9.630741e+000  2.007320e+001
5.5141875000e+009 -1.090713e+001  1.138965e+002 -3.838430e+001  5.306442e+001  2.129280e+001 -2.237069e+001 -9.576578e+000  1.914817e+001
5.5143125000e+009 -1.091419e+001  1.130751e+002 -3.884203e+001  5.559985e+001  2.123706e+001 -2.275914e+001 -9.598006e+000  2.012049e+001
5.5144375000e+009 -1.088846e+001  1.129912e+002 -3.962220e+001  5.507722e+001  2.122239e+001 -2.312165e+001 -9.678168e+000  1.997632e+001
5.5145625000e+009 -1.094609e+001  1.124164e+002 -3.912109e+001  5.984075e+001  2.125270e+001 -2.322765e+001 -9.502547e+000  2.022102e+001
5.5146875000e+009 -1.096259e+001  1.126878e+002 -3.872803e+001  4.819450e+001  2.124478e+001 -2.335316e+001 -9.630698e+000  1.888953e+001
5.5148125000e+009 -1.097575e+001  1.122537e+002 -3.831824e+001  5.498018e+001  2.122150e+001 -2.362661e+001 -9.459352e+000  1.907408e+001
5.5149375000e+009 -1.097751e+001  1.119890e+002 -3.904397e+001  5.866397e+001  2.129267e+001 -2.342043e+001 -9.539637e+000  1.949500e+001
5.5150625000e+009 -1.090593e+001  1.110567e+002 -3.953409e+001  5.585306e+001  2.129389e+001 -2.385025e+001 -9.696410e+000  1.944771e+001
5.5151875000e+009 -1.094372e+001  1.111544e+002 -3.936864e+001  5.792041e+001  2.126544e+001 -2.394764e+001 -9.512173e+000  1.995895e+001
5.5153125000e+009 -1.094985e+001  1.111061e+002 -3.929201e+001  5.669834e+001  2.129876e+001 -2.413864e+001 -9.643301e+000  1.866300e+001
5.5154375000e+009 -1.100671e+001  1.098347e+002 -3.851994e+001  5.729494e+001  2.129451e+001 -2.434728e+001 -9.468864e+000  1.843562e+001
5.5155625000e+009 -1.087045e+001  1.102613e+002 -3.960504e+001  5.529221e+001  2.129400e+001 -2.465459e+001 -9.428714e+000  1.891817e+001
5.5156875000e+009 -1.099771e+001  1.099496e+002 -3.915300e+001  5.780000e+001  2.134247e+001 -2.426120e+001 -9.510396e+000  1.859656e+001
5.5158125000e+009 -1.090327e+001  1.096735e+002 -3.927798e+001  5.667085e+001  2.132529e+001 -2.462957e+001 -9.536423e+000  1.841082e+001
5.5159375000e+009 -1.096775e+001  1.105605e+002 -3.878869e+001  4.966386e+001  2.130367e+001 -2.487210e+001 -9.509578e+000  1.740175e+001
5.5160625000e+009 -1.102821e+001  1.091803e+002 -3.894999e+001  5.832805e+001  2.133843e+001 -2.500442e+001 -9.490086e+000  1.864394e+001
5.5161875000e+009 -1.092186e+001  1.080627e+002 -3.925600e+001  5.578529e+001  2.135836e+001 -2.526953e+001 -9.500680e+000  1.839942e+001
5.5163125000e+009 -1.093107e+001  1.078540e+002 -3.906750e+001  5.046392e+001  2.134188e+001 -2.547170e+001 -9.457891e+000  1.789733e+001
5.5164375000e+009 -1.102260e+001  1.085835e+002 -3.920857e+001  5.691346e+001  2.133565e+001 -2.559892e+001 -9.540340e+000  1.823314e+001
5.5165625000e+009 -1.096706e+001  1.076778e+002 -3.889354e+001  5.529519e+001  2.134805e+001 -2.558822e+001 -9.409553e+000  1.846823e+001
5.5166875000e+009 -1.090841e+001  1.074098e+002 -4.014448e+001  5.529388e+001  2.135473e+001 -2.589799e+001 -9.558058e+000  1.873187e+001
5.5168125000e+009 -1.094517e+001  1.075695e+002 -3.986993e+001  5.623517e+001  2.135177e+001 -2.596564e+001 -9.620374e+000  1.870915e+001
5.5169375000e+009 -1.085932e+001  1.066939e+002 -3.914415e+001  5.186464e+001  2.139312e+001 -2.613324e+001 -9.426386e+000  1.719880e+001
5.5170625000e+009 -1.086288e+001  1.071283e+002 -3.885686e+001  4.895055e+001  2.140596e+001 -2.633372e+001 -9.375035e+000  1.701417e+001
5.5171875000e+009 -1.092668e+001  1.072681e+002 -4.016159e+001  5.221569e+001  2.136541e+001 -2.673281e+001 -9.814223e+000  1.704981e+001
5.5173125000e+009 -1.091837e+001  1.062804e+002 -3.879947e+001  5.344344e+001  2.142817e+001 -2.686407e+001 -9.449719e+000  1.629558e+001
5.5174375000e+009 -1.096005e+001  1.060324e+002 -4.016070e+001  5.820262e+001  2.141399e+001 -2.671778e+001 -9.304330e+000  1.932974e+001
5.5175625000e+009 -1.097155e+001  1.062086e+002 -3.957681e+001  5.662648e+001  2.137132e+001 -2.695148e+001 -9.491540e+000  1.856766e+001
5.5176875000e+009 -1.086034e+001  1.054088e+002 -3.960535e+001  5.249764e+001  2.143106e+001 -2.724508e+001 -9.446025e+000  1.754218e+001
5.5178125000e+009 -1.083589e+001  1.057042e+002 -3.869847e+001  4.885066e+001  2.142542e+001 -2.720433e+001 -9.338390e+000  1.672465e+001
5.5179375000e+009 -1.104717e+001  1.054707e+002 -3.962910e+001  5.488264e+001  2.142843e+001 -2.772323e+001 -9.448070e+000  1.756781e+001
5.5180625000e+009 -1.090805e+001  1.041630e+002 -3.950706e+001  5.737957e+001  2.145703e+001 -2.781531e+001 -9.398844e+000  1.720082e+001
5.5181875000e+009 -1.092167e+001  1.044678e+002 -3.951188e+001  5.866595e+001  2.144559e+001 -2.777040e+001 -9.214305e+000  1.833799e+001
5.5183125000e+009 -1.090995e+001  1.041271e+002 -4.052146e+001  5.506835e+001  2.147643e+001 -2.806709e+001 -9.511910e+000  1.717401e+001
5.5184375000e+009 -1.085605e+001  1.041408e+002 -3.988489e+001  5.259246e+001  2.143767e+001 -2.817609e+001 -9.431995e+000  1.749440e+001
5.5185625000e+009 -1.073427e+001  1.036708e+002 -4.031569e+001  5.268423e+001  2.147604e+001 -2.804633e+001 -9.394345e+000  1.814612e+001
5.5186875000e+009 -1.087012e+001  1.039051e+002 -4.031150e+001  4.844398e+001  2.144672e+001 -2.814453e+001 -9.410860e+000  1.845913e+001
5.5188125000e+009 -1.082121e+001  1.038640e+002 -3.978927e+001  5.199940e+001  2.140557e+001 -2.889709e+001 -9.661760e+000  1.721718e+001
5.5189375000e+009 -1.094999e+001  1.031079e+002 -3.945042e+001  5.150913e+001  2.144129e+001 -2.883267e+001 -9.397084e+000  1.786294e+001
5.5190625000e+009 -1.080656e+001  1.027845e+002 -4.009550e+001  5.320087e+001  2.153315e+001 -2.944431e+001 -9.468994e+000  1.561433e+001
5.5191875000e+009 -1.065986e+001  1.010698e+002 -4.054407e+001  5.153257e+001  2.154484e+001 -2.929090e+001 -9.561268e+000  1.704925e+001
5.5193125000e+009 -1.092489e+001  1.023728e+002 -3.959988e+001  5.582483e+001  2.149620e+001 -2.920351e+001 -9.271030e+000  1.802314e+001
5.5194375000e+009 -1.093801e+001  1.030025e+002 -3.974145e+001  4.568887e+001  2.150575e+001 -2.980149e+001 -9.556981e+000  1.605731e+001
5.5195625000e+009 -1.066015e+001  1.020558e+002 -4.019831e+001  5.417685e+001  2.150131e+001 -2.943262e+001 -9.385153e+000  1.814027e+001
5.5196875000e+009 -1.076175e+001  1.013959e+002 -4.011412e+001  5.253729e+001  2.146305e+001 -2.986077e+001 -9.535086e+000  1.815548e+001
5.5198125000e+009 -1.099405e+001  1.008386e+002 -4.030122e+001  5.372971e+001  2.154472e+001 -3.049206e+001 -9.475825e+000  1.649801e+001
5.5199375000e+009 -1.077942e+001  1.013495e+002 -3.957197e+001  4.938777e+001  2.154907e+001 -3.040980e+001 -9.412011e+000  1.571006e+001
5.5200625000e+009 -1.066326e+001  1.010794e+002 -3.970058e+001  4.908059e+001  2.157186e+001 -3.008659e+001 -9.328556e+000  1.695933e+001
5.5201875000e+009 -1.085141e+001  1.001453e+002 -3.969320e+001  5.387615e+001  2.157575e+001 -3.085582e+001 -9.406789e+000  1.677489e+001
5.5203125000e+009 -1.067777e+001  1.003461e+002 -4.022646e+001  5.290109e+001  2.153579e+001 -3.134888e+001 -9.581200e+000  1.677183e+001
5.5204375000e+009 -1.077743e+001  9.971962e+001 -3.979692e+001  5.400336e+001  2.156585e+001 -3.048450e+001 -9.212185e+000  1.793777e+001
5.5205625000e+009 -1.081877e+001  9.947540e+001 -4.059089e+001  4.814498e+001  2.157270e+001 -3.105667e+001 -9.471066e+000  1.707026e+001
5.5206875000e+009 -1.059427e+001  9.995616e+001 -3.992242e+001  4.730464e+001  2.162525e+001 -3.134120e+001 -9.460657e+000  1.582227e+001
5.5208125000e+009 -1.064013e+001  9.900165e+001 -4.044672e+001  5.316969e+001  2.156336e+001 -3.116530e+001 -9.269129e+000  1.858437e+001
5.5209375000e+009 -1.073684e+001  9.939296e+001 -3.978873e+001  5.103394e+001  2.166561e+001 -3.239412e+001 -9.534709e+000  1.409488e+001
5.5210625000e+009 -1.054337e+001  9.867944e+001 -4.050304e+001  5.491808e+001  2.166833e+001 -3.200239e+001 -9.390586e+000  1.607691e+001
5.5211875000e+009 -1.059370e+001  9.860104e+001 -3.997314e+001  4.990387e+001  2.160050e+001 -3.197488e+001 -9.437882e+000  1.707008e+001
5.5213125000e+009 -1.072414e+001  9.802393e+001 -4.047440e+001  5.306047e+001  2.160139e+001 -3.187632e+001 -9.382862e+000  1.800778e+001
5.5214375000e+009 -1.058789e+001  9.861432e+001 -4.118284e+001  5.105131e+001  2.161675e+001 -3.313530e+001 -9.784109e+000  1.635277e+001
5.5215625000e+009 -1.061294e+001  9.757155e+001 -4.040880e+001  4.808924e+001  2.164883e+001 -3.197322e+001 -9.260457e+000  1.781449e+001
5.5216875000e+009 -1.067174e+001  9.739663e+001 -4.056203e+001  5.596009e+001  2.168700e+001 -3.297890e+001 -9.396286e+000  1.642272e+001
5.5218125000e+009 -1.050361e+001  9.765968e+001 -4.075406e+001  4.543361e+001  2.166711e+001 -3.264004e+001 -9.382452e+000  1.705059e+001
5.5219375000e+009 -1.059604e+001  9.684099e+001 -4.111596e+001  4.772735e+001  2.172256e+001 -3.255998e+001 -9.250132e+000  1.717415e+001
5.5220625000e+009 -1.055169e+001  9.682954e+001 -4.036481e+001  4.771534e+001  2.168067e+001 -3.280796e+001 -9.352699e+000  1.730973e+001
5.5221875000e+009 -1.069105e+001  9.746773e+001 -3.940701e+001  5.284916e+001  2.170731e+001 -3.367193e+001 -9.243758e+000  1.531340e+001
5.5223125000e+009 -1.058034e+001  9.673586e+001 -3.945324e+001  4.801604e+001  2.170303e+001 -3.349500e+001 -9.321622e+000  1.574834e+001
5.5224375000e+009 -1.064862e+001  9.592574e+001 -4.064966e+001  5.361969e+001  2.174408e+001 -3.394224e+001 -9.386183e+000  1.664951e+001
5.5225625000e+009 -1.051575e+001  9.620965e+001 -4.052433e+001  5.279545e+001  2.171855e+001 -3.460313e+001 -9.623630e+000  1.592891e+001
5.5226875000e+009 -1.041954e+001  9.565264e+001 -4.024986e+001  5.252918e+001  2.168667e+001 -3.433970e+001 -9.462031e+000  1.732438e+001
5.5228125000e+009 -1.056246e+001  9.551707e+001 -4.125682e+001  5.021654e+001  2.176894e+001 -3.448125e+001 -9.503110e+000  1.620400e+001
5.5229375000e+009 -1.029572e+001  9.605650e+001 -4.125895e+001  4.863788e+001  2.178895e+001 -3.463752e+001 -9.523619e+000  1.611139e+001
5.5230625000e+009 -1.047970e+001  9.527233e+001 -4.069201e+001  5.047974e+001  2.169709e+001 -3.447041e+001 -9.387976e+000  1.813762e+001
5.5231875000e+009 -1.053686e+001  9.546660e+001 -4.038849e+001  4.721865e+001  2.185607e+001 -3.512609e+001 -9.322142e+000  1.415170e+001
5.5233125000e+009 -1.037506e+001  9.530711e+001 -4.035743e+001  5.037527e+001  2.184263e+001 -3.557346e+001 -9.522010e+000  1.451330e+001
5.5234375000e+009 -1.051809e+001  9.452301e+001 -4.052962e+001  4.843849e+001  2.178488e+001 -3.497347e+001 -9.267152e+000  1.674032e+001
5.5235625000e+009 -1.055973e+001  9.357101e+001 -4.090831e+001  5.565282e+001  2.181568e+001 -3.596345e+001 -9.387459e+000  1.617356e+001
5.5236875000e+009 -1.038581e+001  9.441245e+001 -4.053534e+001  4.856802e+001  2.179558e+001 -3.554299e+001 -9.323845e+000  1.634262e+001
5.5238125000e+009 -1.034055e+001  9.440608e+001 -4.047203e+001  4.322429e+001  2.177939e+001 -3.524350e+001 -9.430470e+000  1.658719e+001
5.5239375000e+009 -1.042292e+001  9.338419e+001 -4.113961e+001  5.360518e+001  2.178890e+001 -3.602111e+001 -9.327065e+000  1.735205e+001
5.5240625000e+009 -1.038606e+001  9.393728e+001 -4.063886e+001  4.980664e+001  2.180743e+001 -3.622950e+001 -9.439962e+000  1.660090e+001
5.5241875000e+009 -1.045815e+001  9.328267e+001 -4.113713e+001  5.298447e+001  2.174064e+001 -3.634075e+001 -9.442679e+000  1.814531e+001
5.5243125000e+009 -1.053156e+001  9.238748e+001 -4.054268e+001  4.690684e+001  2.186248e+001 -3.686682e+001 -9.382442e+000  1.574583e+001
5.5244375000e+009 -1.026767e+001  9.374281e+001 -4.086097e+001  4.955342e+001  2.179350e+001 -3.667417e+001 -9.523842e+000  1.683408e+001
5.5245625000e+009 -1.036407e+001  9.327765e+001 -4.043742e+001  4.717591e+001  2.183135e+001 -3.674895e+001 -9.360540e+000  1.639711e+001
5.5246875000e+009 -1.042298e+001  9.239997e+001 -4.039529e+001  5.386232e+001  2.181246e+001 -3.727362e+001 -9.350260e+000  1.685357e+001
5.5248125000e+009 -1.032023e+001  9.267532e+001 -4.072014e+001  4.801020e+001  2.179210e+001 -3.750454e+001 -9.569740e+000  1.713951e+001
5.5249375000e+009 -1.023390e+001  9.277068e+001 -4.084027e+001  4.240184e+001  2.175084e+001 -3.694341e+001 -9.459911e+000  1.841078e+001
5.5250625000e+009 -1.033857e+001  9.191237e+001 -4.115097e+001  4.608936e+001  2.179878e+001 -3.783580e+001 -9.588388e+000  1.757043e+001
5.5251875000e+009 -1.025488e+001  9.205171e+001 -4.102808e+001  4.710872e+001  2.197176e+001 -3.808772e+001 -9.495829e+000  1.530260e+001
5.5253125000e+009 -1.015306e+001  9.147504e+001 -4.107480e+001  4.711477e+001  2.182611e+001 -3.848439e+001 -9.873210e+000  1.733236e+001
5.5254375000e+009 -1.028817e+001  9.144652e+001 -4.131699e+001  4.920189e+001  2.177498e+001 -3.863148e+001 -9.746941e+000  1.774436e+001
5.5255625000e+009 -1.017999e+001  9.214443e+001 -4.162049e+001  4.637622e+001  2.195703e+001 -3.854327e+001 -9.474067e+000  1.504950e+001
5.5256875000e+009 -1.007628e+001  9.122923e+001 -4.205038e+001  4.775847e+001  2.185314e+001 -3.871111e+001 -9.793516e+000  1.756221e+001
5.5258125000e+009 -1.021481e+001  9.138559e+001 -4.100286e+001  4.906662e+001  2.189375e+001 -3.896402e+001 -9.574089e+000  1.566465e+001
5.5259375000e+009 -1.016287e+001  9.144037e+001 -4.080918e+001  4.336284e+001  2.195558e+001 -3.913680e+001 -9.698448e+000  1.454369e+001
5.5260625000e+009 -1.006436e+001  9.136694e+001 -4.072457e+001  4.859605e+001  2.183591e+001 -3.943853e+001 -9.765373e+000  1.601062e+001
5.5261875000e+009 -1.013679e+001  9.074748e+001 -4.117816e+001  4.796032e+001  2.188546e+001 -3.948627e+001 -9.687238e+000  1.600836e+001
5.5263125000e+009 -9.988050e+000  9.155930e+001 -4.111723e+001  4.404282e+001  2.202870e+001 -3.936892e+001 -9.461537e+000  1.360388e+001
5.5264375000e+009 -1.004134e+001  9.097366e+001 -4.130445e+001  4.963932e+001  2.181737e+001 -3.981032e+001 -9.854150e+000  1.665399e+001
5.5265625000e+009 -1.000803e+001  9.042775e+001 -4.134736e+001  4.553458e+001  2.201657e+001 -3.979157e+001 -9.548248e+000  1.429086e+001
5.5266875000e+009 -9.982512e+000  9.077917e+001 -4.157286e+001  4.604078e+001  2.187696e+001 -4.008115e+001 -9.830304e+000  1.592825e+001
5.5268125000e+009 -9.931332e+000  9.047540e+001 -4.201809e+001  4.495179e+001  2.192843e+001 -4.030265e+001 -9.906804e+000  1.590775e+001
5.5269375000e+009 -9.961058e+000  9.042399e+001 -4.173750e+001  4.525731e+001  2.192724e+001 -4.036644e+001 -9.796129e+000  1.484661e+001
5.5270625000e+009 -9.941408e+000  9.053203e+001 -4.119828e+001  4.706337e+001  2.198214e+001 -4.027842e+001 -9.539680e+000  1.430243e+001
5.5271875000e+009 -9.854345e+000  9.008706e+001 -4.177227e+001  4.519420e+001  2.189286e+001 -4.065174e+001 -9.887740e+000  1.609499e+001
5.5273125000e+009 -9.877954e+000  9.008268e+001 -4.202692e+001  4.717086e+001  2.200040e+001 -4.077028e+001 -9.670135e+000  1.435779e+001
5.5274375000e+009 -9.795711e+000  9.007291e+001 -4.179520e+001  4.214864e+001  2.189031e+001 -4.095465e+001 -9.941370e+000  1.588554e+001
5.5275625000e+009 -9.827455e+000  8.961002e+001 -4.268202e+001  4.475754e+001  2.187135e+001 -4.103058e+001 -9.979041e+000  1.718021e+001
5.5276875000e+009 -9.801797e+000  8.991165e+001 -4.140099e+001  4.531998e+001  2.187922e+001 -4.152689e+001 -1.000615e+001  1.464737e+001
5.5278125000e+009 -9.742394e+000  8.944577e+001 -4.202035e+001  4.489167e+001  2.202669e+001 -4.170456e+001 -9.809566e+000  1.226937e+001
5.5279375000e+009 -9.738003e+000  8.927018e+001 -4.282404e+001  4.457861e+001  2.186564e+001 -4.208854e+001 -1.028017e+001  1.652507e+001
5.5280625000e+009 -9.745377e+000  8.960609e+001 -4.198243e+001  4.940631e+001  2.188210e+001 -4.192220e+001 -9.965837e+000  1.603881e+001
5.5281875000e+009 -9.739001e+000  8.938238e+001 -4.107068e+001  4.644664e+001  2.199049e+001 -4.191296e+001 -9.684262e+000  1.340312e+001
5.5283125000e+009 -9.639956e+000  8.898678e+001 -4.271121e+001  4.367664e+001  2.194048e+001 -4.234771e+001 -1.020567e+001  1.505374e+001
5.5284375000e+009 -9.711244e+000  8.907789e+001 -4.174862e+001  4.407209e+001  2.186980e+001 -4.244215e+001 -1.013098e+001  1.583903e+001
5.5285625000e+009 -9.679564e+000  8.873746e+001 -4.210677e+001  4.843478e+001  2.201917e+001 -4.260745e+001 -9.853276e+000  1.318926e+001
5.5286875000e+009 -9.631451e+000  8.918261e+001 -4.140577e+001  4.375706e+001  2.184505e+001 -4.291187e+001 -1.024715e+001  1.477784e+001
5.5288125000e+009 -9.613956e+000  8.877759e+001 -4.190362e+001  4.706658e+001  2.191220e+001 -4.295234e+001 -1.015505e+001  1.481836e+001
5.5289375000e+009 -9.591507e+000  8.825076e+001 -4.218852e+001  4.911286e+001  2.201495e+001 -4.336460e+001 -9.914921e+000  1.263148e+001
5.5290625000e+009 -9.556382e+000  8.861613e+001 -4.213106e+001  4.446067e+001  2.191643e+001 -4.354395e+001 -1.029877e+001  1.436623e+001
5.5291875000e+009 -9.584886e+000  8.838016e+001 -4.148405e+001  5.206111e+001  2.190022e+001 -4.367738e+001 -1.019325e+001  1.442790e+001
5.5293125000e+009 -9.577287e+000  8.840260e+001 -4.191660e+001  4.548652e+001  2.195070e+001 -4.369822e+001 -1.008075e+001  1.309140e+001
5.5294375000e+009 -9.547664e+000  8.839391e+001 -4.176115e+001  4.749386e+001  2.185886e+001 -4.390040e+001 -1.031208e+001  1.510096e+001
5.5295625000e+009 -9.509021e+000  8.846207e+001 -4.238293e+001  4.486455e+001  2.187034e+001 -4.415105e+001 -1.029095e+001  1.530751e+001
5.5296875000e+009 -9.468835e+000  8.808814e+001 -4.236297e+001  4.412415e+001  2.190166e+001 -4.447936e+001 -1.046167e+001  1.361296e+001
5.5298125000e+009 -9.457905e+000  8.801783e+001 -4.152180e+001  4.475674e+001  2.193151e+001 -4.435820e+001 -1.020383e+001  1.341976e+001
5.5299375000e+009 -9.449019e+000  8.815679e+001 -4.209622e+001  4.377463e+001  2.186971e+001 -4.469442e+001 -1.040421e+001  1.425104e+001
5.5300625000e+009 -9.467942e+000  8.795802e+001 -4.130500e+001  4.864656e+001  2.193879e+001 -4.469582e+001 -9.938358e+000  1.293075e+001
5.5301875000e+009 -9.400888e+000  8.796935e+001 -4.156753e+001  4.027247e+001  2.188253e+001 -4.510686e+001 -1.062480e+001  1.335376e+001
5.5303125000e+009 -9.396993e+000  8.770040e+001 -4.215141e+001  4.630566e+001  2.187955e+001 -4.546629e+001 -1.056354e+001  1.342930e+001
5.5304375000e+009 -9.370447e+000  8.783257e+001 -4.241822e+001  3.807194e+001  2.187584e+001 -4.558682e+001 -1.056248e+001  1.338331e+001
5.5305625000e+009 -9.373240e+000  8.768018e+001 -4.175677e+001  4.496135e+001  2.191596e+001 -4.548551e+001 -1.049353e+001  1.247232e+001
5.5306875000e+009 -9.323093e+000  8.740338e+001 -4.209232e+001  4.664454e+001  2.193209e+001 -4.564721e+001 -1.030960e+001  1.298432e+001
5.5308125000e+009 -9.350853e+000  8.710119e+001 -4.216563e+001  4.666288e+001  2.191308e+001 -4.614864e+001 -1.048903e+001  1.212891e+001
5.5309375000e+009 -9.286717e+000  8.743688e+001 -4.175317e+001  4.182251e+001  2.189418e+001 -4.612655e+001 -1.057933e+001  1.166451e+001
5.5310625000e+009 -9.314464e+000  8.727815e+001 -4.210889e+001  4.462259e+001  2.192365e+001 -4.628471e+001 -1.056121e+001  1.220950e+001
5.5311875000e+009 -9.296463e+000  8.695171e+001 -4.251532e+001  5.083129e+001  2.185936e+001 -4.663259e+001 -1.074835e+001  1.290844e+001
5.5313125000e+009 -9.260206e+000  8.712871e+001 -4.249405e+001  4.276532e+001  2.188147e+001 -4.696283e+001 -1.044788e+001  1.190965e+001
5.5314375000e+009 -9.257896e+000  8.711891e+001 -4.194246e+001  4.419959e+001  2.189758e+001 -4.682839e+001 -1.042949e+001  1.176914e+001
5.5315625000e+009 -9.244247e+000  8.677225e+001 -4.254637e+001  4.792745e+001  2.188224e+001 -4.675115e+001 -1.068830e+001  1.305315e+001
5.5316875000e+009 -9.224857e+000  8.671755e+001 -4.285218e+001  4.608207e+001  2.189370e+001 -4.716655e+001 -1.047459e+001  1.305567e+001
5.5318125000e+009 -9.221071e+000  8.676637e+001 -4.232164e+001  4.575092e+001  2.193289e+001 -4.722247e+001 -1.031295e+001  1.258120e+001
5.5319375000e+009 -9.204288e+000  8.668880e+001 -4.237153e+001  4.622359e+001  2.186678e+001 -4.763657e+001 -1.072940e+001  1.224946e+001
5.5320625000e+009 -9.180741e+000  8.655505e+001 -4.235446e+001  4.107618e+001  2.187757e+001 -4.779096e+001 -1.057398e+001  1.242219e+001
5.5321875000e+009 -9.158640e+000  8.645929e+001 -4.291846e+001  4.558915e+001  2.186588e+001 -4.779356e+001 -1.066129e+001  1.199743e+001
5.5323125000e+009 -9.140419e+000  8.656567e+001 -4.253831e+001  3.917906e+001  2.184865e+001 -4.834857e+001 -1.082133e+001  1.100145e+001
5.5324375000e+009 -9.124525e+000  8.633361e+001 -4.256072e+001  4.393689e+001  2.187724e+001 -4.811579e+001 -1.067893e+001  1.145029e+001
5.5325625000e+009 -9.150828e+000  8.625084e+001 -4.243469e+001  5.281972e+001  2.189253e+001 -4.849011e+001 -1.056067e+001  1.241698e+001
5.5326875000e+009 -9.129881e+000  8.641560e+001 -4.179502e+001  4.259212e+001  2.182978e+001 -4.856406e+001 -1.104344e+001  1.100904e+001
5.5328125000e+009 -9.029490e+000  8.591139e+001 -4.323342e+001  3.842965e+001  2.184842e+001 -4.897001e+001 -1.110506e+001  1.185651e+001
5.5329375000e+009 -9.093825e+000  8.604487e+001 -4.294989e+001  4.405271e+001  2.184350e+001 -4.895927e+001 -1.086408e+001  1.154326e+001
5.5330625000e+009 -9.076945e+000  8.590385e+001 -4.331777e+001  4.696394e+001  2.184624e+001 -4.897389e+001 -1.100652e+001  1.277182e+001
5.5331875000e+009 -9.023667e+000  8.576431e+001 -4.222225e+001  4.333717e+001  2.185584e+001 -4.905292e+001 -1.084664e+001  1.166764e+001
5.5333125000e+009 -9.033480e+000  8.584380e+001 -4.312712e+001  4.171597e+001  2.181718e+001 -4.957391e+001 -1.104528e+001  1.134557e+001
5.5334375000e+009 -9.033033e+000  8.571140e+001 -4.355328e+001  4.493482e+001  2.180662e+001 -4.973836e+001 -1.123348e+001  1.238972e+001
5.5335625000e+009 -9.020936e+000  8.560678e+001 -4.291895e+001  3.816765e+001  2.181792e+001 -4.981855e+001 -1.122991e+001  1.074403e+001
5.5336875000e+009 -9.000734e+000  8.560242e+001 -4.204940e+001  4.519450e+001  2.179110e+001 -5.016567e+001 -1.085688e+001  1.010722e+001
5.5338125000e+009 -8.992273e+000  8.556676e+001 -4.259384e+001  4.422013e+001  2.183216e+001 -5.012288e+001 -1.143613e+001  1.124404e+001
5.5339375000e+009 -8.985213e+000  8.553505e+001 -4.211031e+001  4.046745e+001  2.178638e+001 -5.038477e+001 -1.134019e+001  1.007344e+001
5.5340625000e+009 -8.980332e+000  8.545557e+001 -4.317209e+001  4.259425e+001  2.176802e+001 -5.058355e+001 -1.127371e+001  1.073576e+001
5.5341875000e+009 -8.986906e+000  8.543560e+001 -4.221214e+001  4.638582e+001  2.174712e+001 -5.067044e+001 -1.136390e+001  1.011629e+001
5.5343125000e+009 -8.963211e+000  8.520132e+001 -4.319374e+001  4.640114e+001  2.178070e+001 -5.086996e+001 -1.137848e+001  1.100764e+001
5.5344375000e+009 -8.929964e+000  8.515572e+001 -4.348627e+001  3.961774e+001  2.174429e+001 -5.139067e+001 -1.127282e+001  1.029866e+001
5.5345625000e+009 -8.926906e+000  8.509689e+001 -4.307371e+001  4.690116e+001  2.175888e+001 -5.120682e+001 -1.153212e+001  1.007956e+001
5.5346875000e+009 -8.952367e+000  8.509715e+001 -4.238233e+001  4.742607e+001  2.176639e+001 -5.162137e+001 -1.144581e+001  1.007720e+001
5.5348125000e+009 -8.909337e+000  8.487617e+001 -4.350094e+001  4.563215e+001  2.176739e+001 -5.169444e+001 -1.124041e+001  1.087103e+001
5.5349375000e+009 -8.905025e+000  8.496394e+001 -4.283661e+001  4.188660e+001  2.171992e+001 -5.196621e+001 -1.159634e+001  9.818047e+000
5.5350625000e+009 -8.892282e+000  8.478252e+001 -4.367229e+001  4.583597e+001  2.174075e+001 -5.212505e+001 -1.145520e+001  1.044239e+001
5.5351875000e+009 -8.895501e+000  8.475597e+001 -4.285110e+001  4.224042e+001  2.177160e+001 -5.197490e+001 -1.158819e+001  1.022397e+001
5.5353125000e+009 -8.877969e+000  8.459565e+001 -4.290710e+001  4.551982e+001  2.170654e+001 -5.204499e+001 -1.160832e+001  9.365406e+000
5.5354375000e+009 -8.852010e+000  8.475768e+001 -4.313976e+001  4.224695e+001  2.169914e+001 -5.241825e+001 -1.168319e+001  8.955224e+000
5.5355625000e+009 -8.871009e+000  8.451687e+001 -4.359954e+001  4.209896e+001  2.162547e+001 -5.261115e+001 -1.155188e+001  9.762706e+000
5.5356875000e+009 -8.864211e+000  8.464818e+001 -4.248081e+001  4.480612e+001  2.167506e+001 -5.290524e+001 -1.170297e+001  9.060352e+000
5.5358125000e+009 -8.837496e+000  8.449629e+001 -4.309142e+001  5.047257e+001  2.164476e+001 -5.324754e+001 -1.152528e+001  9.246127e+000
5.5359375000e+009 -8.814945e+000  8.425665e+001 -4.387521e+001  4.963158e+001  2.161201e+001 -5.359749e+001 -1.148101e+001  9.779554e+000
5.5360625000e+009 -8.849349e+000  8.433913e+001 -4.312523e+001  4.382882e+001  2.163436e+001 -5.337496e+001 -1.176840e+001  9.070137e+000
5.5361875000e+009 -8.807413e+000  8.441599e+001 -4.275800e+001  4.359044e+001  2.168905e+001 -5.385082e+001 -1.172230e+001  8.724288e+000
5.5363125000e+009 -8.804005e+000  8.445381e+001 -4.277694e+001  4.317799e+001  2.162859e+001 -5.422898e+001 -1.174271e+001  8.848604e+000
5.5364375000e+009 -8.783989e+000  8.404271e+001 -4.397272e+001  4.081817e+001  2.163645e+001 -5.378108e+001 -1.194859e+001  8.769526e+000
5.5365625000e+009 -8.748725e+000  8.424585e+001 -4.333023e+001  3.997172e+001  2.156128e+001 -5.435440e+001 -1.196503e+001  8.358550e+000
5.5366875000e+009 -8.803194e+000  8.392294e+001 -4.356759e+001  4.778117e+001  2.161756e+001 -5.461814e+001 -1.179392e+001  9.343951e+000
5.5368125000e+009 -8.766814e+000  8.391734e+001 -4.374257e+001  4.587382e+001  2.160025e+001 -5.458010e+001 -1.192821e+001  8.841995e+000
5.5369375000e+009 -8.751748e+000  8.403263e+001 -4.266005e+001  4.331293e+001  2.160245e+001 -5.495899e+001 -1.194470e+001  7.962114e+000
5.5370625000e+009 -8.734683e+000  8.409834e+001 -4.283503e+001  4.757483e+001  2.157918e+001 -5.518101e+001 -1.185358e+001  8.766219e+000
5.5371875000e+009 -8.751344e+000  8.388243e+001 -4.310910e+001  3.581059e+001  2.152472e+001 -5.493929e+001 -1.227821e+001  7.287332e+000
5.5373125000e+009 -8.722747e+000  8.383800e+001 -4.363807e+001  4.253530e+001  2.156479e+001 -5.488084e+001 -1.209509e+001  8.348025e+000
5.5374375000e+009 -8.693804e+000  8.378261e+001 -4.372475e+001  4.494466e+001  2.160641e+001 -5.594789e+001 -1.205439e+001  8.543440e+000
5.5375625000e+009 -8.705606e+000  8.373047e+001 -4.389476e+001  4.546470e+001  2.156835e+001 -5.521590e+001 -1.210976e+001  7.806972e+000
5.5376875000e+009 -8.683887e+000  8.371271e+001 -4.383418e+001  4.529654e+001  2.150802e+001 -5.586993e+001 -1.221789e+001  7.676222e+000
5.5378125000e+009 -8.678694e+000  8.395160e+001 -4.320675e+001  4.430072e+001  2.148246e+001 -5.653740e+001 -1.222898e+001  7.918994e+000
5.5379375000e+009 -8.667896e+000  8.369584e+001 -4.389318e+001  4.716518e+001  2.150301e+001 -5.640775e+001 -1.218806e+001  7.384742e+000
5.5380625000e+009 -8.657269e+000  8.369807e+001 -4.356139e+001  3.334986e+001  2.146081e+001 -5.605066e+001 -1.238274e+001  7.059510e+000
5.5381875000e+009 -8.658888e+000  8.386195e+001 -4.351320e+001  3.938566e+001  2.147746e+001 -5.666851e+001 -1.232954e+001  6.835652e+000
5.5383125000e+009 -8.639902e+000  8.360822e+001 -4.390993e+001  4.206416e+001  2.145443e+001 -5.681182e+001 -1.234015e+001  6.912032e+000
5.5384375000e+009 -8.643364e+000  8.391238e+001 -4.266916e+001  4.056300e+001  2.150714e+001 -5.645350e+001 -1.235894e+001  5.579848e+000
5.5385625000e+009 -8.635071e+000  8.380530e+001 -4.386000e+001  4.966765e+001  2.149419e+001 -5.695724e+001 -1.229918e+001  6.038800e+000
5.5386875000e+009 -8.621665e+000  8.363274e+001 -4.458194e+001  4.665639e+001  2.135423e+001 -5.652880e+001 -1.232509e+001  6.368445e+000
5.5388125000e+009 -8.607944e+000  8.393114e+001 -4.355853e+001  4.661955e+001  2.144029e+001 -5.731790e+001 -1.232451e+001  5.757529e+000
5.5389375000e+009 -8.607222e+000  8.386439e+001 -4.374736e+001  4.107218e+001  2.143207e+001 -5.729084e+001 -1.241879e+001  5.145252e+000
5.5390625000e+009 -8.612398e+000  8.346849e+001 -4.402436e+001  3.901772e+001  2.137522e+001 -5.732380e+001 -1.251985e+001  5.043642e+000
5.5391875000e+009 -8.597275e+000  8.391860e+001 -4.350798e+001  4.250362e+001  2.136854e+001 -5.735137e+001 -1.244350e+001  4.653053e+000
5.5393125000e+009 -8.571219e+000  8.388689e+001 -4.310590e+001  4.296695e+001  2.143111e+001 -5.786834e+001 -1.245899e+001  4.173844e+000
5.5394375000e+009 -8.556972e+000  8.380919e+001 -4.311530e+001  4.239589e+001  2.146944e+001 -5.807823e+001 -1.254294e+001  2.836851e+000
5.5395625000e+009 -8.570563e+000  8.399978e+001 -4.346939e+001  3.763260e+001  2.145323e+001 -5.833689e+001 -1.262334e+001  3.256147e+000
5.5396875000e+009 -8.538559e+000  8.378710e+001 -4.476925e+001  4.564552e+001  2.145094e+001 -5.832449e+001 -1.251672e+001  4.157087e+000
5.5398125000e+009 -8.533863e+000  8.378088e+001 -4.353964e+001  4.360137e+001  2.139785e+001 -5.891891e+001 -1.262316e+001  2.678598e+000
5.5399375000e+009 -8.542936e+000  8.386160e+001 -4.352532e+001  4.390260e+001  2.140633e+001 -5.884748e+001 -1.258471e+001  2.480577e+000
5.5400625000e+009 -8.522883e+000  8.382992e+001 -4.368382e+001  4.099752e+001  2.137815e+001 -5.900321e+001 -1.268949e+001  3.295447e+000
5.5401875000e+009 -8.496350e+000  8.371847e+001 -4.436179e+001  3.581396e+001  2.132286e+001 -5.850759e+001 -1.262934e+001  2.834020e+000
5.5403125000e+009 -8.537415e+000  8.419425e+001 -4.328247e+001  4.382135e+001  2.126392e+001 -5.898962e+001 -1.256721e+001  2.264146e+000
5.5404375000e+009 -8.526292e+000  8.417828e+001 -4.290794e+001  4.530214e+001  2.135093e+001 -5.969057e+001 -1.263087e+001  9.034259e-001
5.5405625000e+009 -8.520590e+000  8.391413e+001 -4.400657e+001  4.405835e+001  2.135051e+001 -5.943316e+001 -1.266828e+001  1.400176e+000
5.5406875000e+009 -8.497389e+000  8.386491e+001 -4.396205e+001  4.189151e+001  2.136320e+001 -5.940684e+001 -1.262277e+001  5.816805e-001
5.5408125000e+009 -8.490827e+000  8.404168e+001 -4.325876e+001  3.813187e+001  2.126911e+001 -5.973127e+001 -1.276812e+001  8.909555e-001
5.5409375000e+009 -8.474978e+000  8.384943e+001 -4.434325e+001  4.521741e+001  2.113816e+001 -5.955218e+001 -1.263670e+001  2.098847e+000
5.5410625000e+009 -8.483016e+000  8.397047e+001 -4.390183e+001  3.808525e+001  2.123169e+001 -6.036668e+001 -1.284228e+001  5.054610e-001
5.5411875000e+009 -8.491735e+000  8.405473e+001 -4.370620e+001  4.247202e+001  2.129190e+001 -6.054776e+001 -1.274514e+001 -3.741763e-001
5.5413125000e+009 -8.459203e+000  8.374771e+001 -4.413255e+001  4.056070e+001  2.118425e+001 -6.018776e+001 -1.281240e+001  3.367910e-001
5.5414375000e+009 -8.465226e+000  8.392532e+001 -4.386274e+001  4.462269e+001  2.125110e+001 -6.024933e+001 -1.260974e+001 -4.453957e-001
5.5415625000e+009 -8.454185e+000  8.407132e+001 -4.323244e+001  3.947575e+001  2.128260e+001 -6.057993e+001 -1.274323e+001 -1.213426e+000
5.5416875000e+009 -8.454681e+000  8.399191e+001 -4.385020e+001  4.494975e+001  2.117671e+001 -6.104544e+001 -1.284933e+001 -4.938228e-001
5.5418125000e+009 -8.437343e+000  8.396804e+001 -4.418081e+001  3.957755e+001  2.128848e+001 -6.114519e+001 -1.284060e+001 -2.018316e+000
5.5419375000e+009 -8.429749e+000  8.403181e+001 -4.433595e+001  4.345486e+001  2.127952e+001 -6.089103e+001 -1.263625e+001 -1.080884e+000
5.5420625000e+009 -8.415690e+000  8.404927e+001 -4.419997e+001  3.633795e+001  2.113315e+001 -6.106052e+001 -1.287435e+001 -6.258450e-001
5.5421875000e+009 -8.442532e+000  8.394936e+001 -4.373361e+001  4.157079e+001  2.116882e+001 -6.157523e+001 -1.284799e+001 -1.741334e+000
5.5423125000e+009 -8.425828e+000  8.403236e+001 -4.431311e+001  3.654517e+001  2.120617e+001 -6.187024e+001 -1.298574e+001 -1.021194e+000
5.5424375000e+009 -8.422847e+000  8.397220e+001 -4.393885e+001  4.232508e+001  2.113686e+001 -6.185728e+001 -1.289237e+001 -1.680117e+000
5.5425625000e+009 -8.435856e+000  8.406259e+001 -4.379673e+001  3.939368e+001  2.117239e+001 -6.172555e+001 -1.286686e+001 -3.231142e+000
5.5426875000e+009 -8.404535e+000  8.406477e+001 -4.426437e+001  2.971400e+001  2.109871e+001 -6.204112e+001 -1.323513e+001 -2.043088e+000
5.5428125000e+009 -8.409136e+000  8.403697e+001 -4.392236e+001  3.898707e+001  2.113241e+001 -6.169902e+001 -1.273464e+001 -2.755721e+000
5.5429375000e+009 -8.424955e+000  8.404638e+001 -4.307519e+001  4.780417e+001  2.106996e+001 -6.246737e+001 -1.287314e+001 -2.544100e+000
5.5430625000e+009 -8.400477e+000  8.406350e+001 -4.375497e+001  3.774635e+001  2.117202e+001 -6.221073e+001 -1.289953e+001 -3.525528e+000
5.5431875000e+009 -8.392622e+000  8.397071e+001 -4.433950e+001  4.407620e+001  2.103182e+001 -6.253023e+001 -1.284899e+001 -2.732698e+000
5.5433125000e+009 -8.368060e+000  8.413833e+001 -4.402056e+001  3.299491e+001  2.109970e+001 -6.260369e+001 -1.299678e+001 -3.547551e+000
5.5434375000e+009 -8.391840e+000  8.405623e+001 -4.379068e+001  4.608883e+001  2.118871e+001 -6.317536e+001 -1.284259e+001 -5.591461e+000
5.5435625000e+009 -8.377488e+000  8.413573e+001 -4.406357e+001  3.463845e+001  2.111107e+001 -6.280191e+001 -1.290963e+001 -4.986122e+000
5.5436875000e+009 -8.395541e+000  8.399796e+001 -4.432310e+001  3.831504e+001  2.104534e+001 -6.336135e+001 -1.303768e+001 -3.762870e+000
5.5438125000e+009 -8.392504e+000  8.394827e+001 -4.368263e+001  3.859858e+001  2.112257e+001 -6.302828e+001 -1.282094e+001 -5.217696e+000
5.5439375000e+009 -8.381691e+000  8.398678e+001 -4.456073e+001  4.031569e+001  2.104809e+001 -6.363972e+001 -1.296938e+001 -4.798339e+000
5.5440625000e+009 -8.379805e+000  8.402780e+001 -4.394251e+001  3.766012e+001  2.103804e+001 -6.356889e+001 -1.299570e+001 -5.229634e+000
5.5441875000e+009 -8.380493e+000  8.397628e+001 -4.478067e+001  4.481500e+001  2.108930e+001 -6.357854e+001 -1.297624e+001 -5.641127e+000
5.5443125000e+009 -8.366209e+000  8.406772e+001 -4.404171e+001  3.759081e+001  2.107644e+001 -6.407638e+001 -1.302999e+001 -5.424645e+000
5.5444375000e+009 -8.390279e+000  8.400288e+001 -4.402567e+001  4.274701e+001  2.098230e+001 -6.398173e+001 -1.281607e+001 -5.205975e+000
5.5445625000e+009 -8.365405e+000  8.406924e+001 -4.473448e+001  4.292660e+001  2.106000e+001 -6.412667e+001 -1.289545e+001 -5.812035e+000
5.5446875000e+009 -8.372647e+000  8.405649e+001 -4.358751e+001  4.712134e+001  2.092029e+001 -6.442632e+001 -1.288908e+001 -5.297506e+000
5.5448125000e+009 -8.352571e+000  8.398436e+001 -4.419912e+001  3.813748e+001  2.097552e+001 -6.431792e+001 -1.294104e+001 -4.334171e+000
5.5449375000e+009 -8.362928e+000  8.407290e+001 -4.443800e+001  3.990810e+001  2.106991e+001 -6.451543e+001 -1.291015e+001 -7.616074e+000
5.5450625000e+009 -8.359722e+000  8.395113e+001 -4.460707e+001  4.376170e+001  2.093874e+001 -6.477711e+001 -1.282808e+001 -6.117454e+000
5.5451875000e+009 -8.353119e+000  8.400758e+001 -4.439154e+001  3.868077e+001  2.090884e+001 -6.509018e+001 -1.312588e+001 -4.692305e+000
5.5453125000e+009 -8.355088e+000  8.392549e+001 -4.454548e+001  4.577530e+001  2.093179e+001 -6.507948e+001 -1.307097e+001 -5.286695e+000
5.5454375000e+009 -8.349649e+000  8.402900e+001 -4.426849e+001  4.077185e+001  2.091889e+001 -6.509376e+001 -1.293645e+001 -6.584204e+000
5.5455625000e+009 -8.349305e+000  8.394169e+001 -4.363085e+001  4.123339e+001  2.092432e+001 -6.565308e+001 -1.321002e+001 -6.815205e+000
5.5456875000e+009 -8.346247e+000  8.399448e+001 -4.355650e+001  4.000297e+001  2.099421e+001 -6.529645e+001 -1.296905e+001 -7.907047e+000
5.5458125000e+009 -8.338655e+000  8.405335e+001 -4.454874e+001  3.952377e+001  2.090796e+001 -6.583025e+001 -1.312743e+001 -6.740867e+000
5.5459375000e+009 -8.331946e+000  8.387858e+001 -4.376606e+001  3.990817e+001  2.089971e+001 -6.570297e+001 -1.285964e+001 -6.674607e+000
5.5460625000e+009 -8.344938e+000  8.405428e+001 -4.413843e+001  3.855527e+001  2.093557e+001 -6.558722e+001 -1.292204e+001 -7.393396e+000
5.5461875000e+009 -8.334668e+000  8.390801e+001 -4.452515e+001  4.092957e+001  2.087632e+001 -6.619961e+001 -1.299618e+001 -7.273017e+000
5.5463125000e+009 -8.322183e+000  8.384367e+001 -4.538739e+001  3.831504e+001  2.084418e+001 -6.643027e+001 -1.312780e+001 -5.344643e+000
